# LAMMPS data file
756 atoms
2 atom types
0.0 32.39794198551478 xlo xhi
0.0 23.64774 ylo yhi
0.0 77.32469402918946 zlo zhi

Atoms # atomic

1 1 5.07362 3.05499 31.4383
2 1 8.95332 4.82759 30
3 1 10.4733 0.886302 31.4383
4 1 3.55366 6.99628 30
5 2 6.08428 5.36421 30.2063
6 2 7.94266 2.51837 31.232
7 2 0.684626 6.45966 30.2063
8 2 2.543 1.42292 31.232
9 2 8.45027 7.31804 30.6132
10 2 5.57668 0.564542 30.8251
11 2 3.05061 4.50583 30.6132
12 2 0.177018 3.37675 30.8251
13 1 8.30125 3.05499 34.086
14 1 1.38163 4.82759 32.6477
15 1 2.90159 0.886302 34.086
16 1 6.78129 6.99628 32.6477
17 2 9.31191 5.36421 32.854
18 2 0.370971 2.51837 33.8797
19 2 3.91225 6.45966 32.854
20 2 5.77063 1.42292 33.8797
21 2 0.878579 7.31804 33.261
22 2 8.8043 0.564542 33.4728
23 2 6.27824 4.50583 33.261
24 2 3.40464 3.37675 33.4728
25 1 0.739618 3.01891 36.6236
26 1 4.61648 5.08996 35.0518
27 1 5.99462 0.968056 36.7089
28 1 9.9452 7.07766 35.2994
29 2 1.69816 5.48859 35.7885
30 2 3.30555 2.6197 36.3626
31 2 6.99002 6.57291 35.3837
32 2 9.0325 1.44653 36.6043
33 2 4.29811 7.47241 35.9955
34 2 0.688353 0.337269 36.1425
35 2 9.78035 4.6525 36.2148
36 2 6.318 3.44754 36.0319
37 1 4.02479 3.31332 39.5755
38 1 7.71165 4.8262 37.9773
39 1 9.17038 0.557238 39.2515
40 1 2.54009 6.93476 37.9734
41 2 4.71651 5.11672 38.1415
42 2 6.56812 2.46714 39.1269
43 2 10.3772 6.81675 38.3568
44 2 1.23359 1.58284 39.1046
45 2 7.33278 7.25054 38.4101
46 2 4.48281 0.732949 38.9695
47 2 1.8177 4.62999 38.8363
48 2 9.91071 3.23894 38.8168
49 1 7.35399 3.38254 42.3256
50 1 0.123086 4.87635 40.512
51 1 1.80843 0.758171 42.0789
52 1 5.7001 7.16441 40.7661
53 2 8.35529 5.51381 41.1192
54 2 10.2998 2.98426 42.5603
55 2 2.69772 6.45366 40.795
56 2 4.47886 1.7222 42.3415
57 2 10.4603 7.63165 41.4539
58 2 7.75835 1.06211 41.4797
59 2 5.13402 4.44459 41.2497
60 2 2.04779 3.20402 41.3874
61 1 10.5318 3.31252 45.2081
62 1 3.44491 4.80799 43.4538
63 1 5.09183 0.792739 45.3492
64 1 9.12073 7.14335 43.6153
65 2 0.652588 5.60118 43.4388
66 2 2.56441 2.48859 44.5947
67 2 6.12342 6.64908 43.3006
68 2 8.40131 2.01163 45.4194
69 2 2.97269 7.35087 44.1081
70 2 0.299764 0.748504 44.2678
71 2 8.37042 4.81068 44.1788
72 2 5.46212 3.63007 44.4964
73 1 3.01574 3.21258 47.397
74 1 6.67538 4.78842 46.5118
75 1 8.4789 1.09534 47.7208
76 1 1.37153 7.08041 46.119
77 2 4.15204 5.14692 46.3517
78 2 5.42821 2.44285 47.6378
79 2 9.5693 7.05549 46.2507
80 2 0.377603 1.70532 47.2754
81 2 6.27609 7.17442 47.5509
82 2 3.54157 0.682895 47.4652
83 2 1.45724 4.58567 45.6646
84 2 8.42112 3.29448 47.2177
85 1 5.07362 10.9376 31.4383
86 1 8.95332 12.7102 30
87 1 10.4733 8.76888 31.4383
88 1 3.55366 14.8789 30
89 2 6.08428 13.2468 30.2063
90 2 7.94266 10.401 31.232
91 2 0.684626 14.3422 30.2063
92 2 2.543 9.3055 31.232
93 2 8.45027 15.2006 30.6132
94 2 5.57668 8.44712 30.8251
95 2 3.05061 12.3884 30.6132
96 2 0.177018 11.2593 30.8251
97 1 8.30125 10.9376 34.086
98 1 1.38163 12.7102 32.6477
99 1 2.90159 8.76888 34.086
100 1 6.78129 14.8789 32.6477
101 2 9.31191 13.2468 32.854
102 2 0.370971 10.401 33.8797
103 2 3.91225 14.3422 32.854
104 2 5.77063 9.3055 33.8797
105 2 0.878579 15.2006 33.261
106 2 8.8043 8.44712 33.4728
107 2 6.27824 12.3884 33.261
108 2 3.40464 11.2593 33.4728
109 1 0.975104 11.1648 36.8457
110 1 4.59409 13.0511 35.4798
111 1 6.1356 8.86596 36.656
112 1 9.92435 15.0214 35.3103
113 2 1.95375 13.3498 35.454
114 2 3.43287 10.3185 36.4355
115 2 6.96185 14.6376 35.7347
116 2 9.21931 9.78133 36.5271
117 2 3.79932 15.3517 36.0342
118 2 1.36955 8.2522 36.3225
119 2 10.1098 12.4596 35.3518
120 2 6.50657 11.2796 35.9877
121 1 3.90145 11.0123 39.8712
122 1 7.99064 12.8329 38.0901
123 1 9.25871 8.88453 39.3562
124 1 2.24381 15.001 37.9928
125 2 5.26209 13.1861 38.1033
126 2 6.67812 10.0344 39.1666
127 2 10.391 14.3472 38.6502
128 2 1.31121 9.80592 39.5362
129 2 7.39935 15.4892 38.4576
130 2 4.41807 8.64697 38.7884
131 2 1.92456 12.6401 38.4244
132 2 9.83348 11.6749 39.1643
133 1 7.40164 11.0212 42.1904
134 1 0.103304 12.8177 40.5963
135 1 1.48763 8.677 42.2943
136 1 5.76219 14.9869 40.5641
137 2 8.25028 13.0171 40.7032
138 2 10.544 10.3994 41.5591
139 2 4.33874 15.9802 38.7657
140 2 4.35794 9.20249 42.1859
141 2 10.4107 15.5686 41.3511
142 2 7.91218 8.4886 41.7979
143 2 3.09984 14.1178 40.3574
144 2 2.25782 11.231 41.6688
145 1 10.357 11.164 45.3368
146 1 3.54268 12.6878 43.4738
147 1 5.18331 8.79463 44.7972
148 1 8.63557 14.872 43.5708
149 2 0.469729 13.2933 43.7556
150 2 1.53096 12.5099 46.5285
151 2 5.37991 12.3979 41.5228
152 2 8.14742 9.57757 44.9648
153 2 3.25876 15.2864 44.333
154 2 0.497686 9.28157 46.9129
155 2 8.62949 12.3391 44.0739
156 2 5.39533 11.3462 43.9773
157 1 2.96891 10.8434 47.3623
158 1 6.64761 12.5089 46.0039
159 1 8.16736 8.99293 47.6267
160 1 1.80165 15.0217 46.4605
161 2 30.4198 11.2427 47.1485
162 2 4.12871 13.0013 46.304
163 2 10.6186 16.7233 44.9314
164 2 3.4313 8.66593 46.5755
165 2 9.561 13.9402 45.9249
166 2 2.32788 10.1396 44.6224
167 2 6.64577 15.2962 46.2305
168 2 5.62887 10.5008 46.7871
169 1 5.07362 18.8201 31.4383
170 1 8.95332 20.5928 30
171 1 10.4733 16.6515 31.4383
172 1 3.55366 22.7614 30
173 2 6.08428 21.1294 30.2063
174 2 7.94266 18.2835 31.232
175 2 0.684626 22.2248 30.2063
176 2 2.543 17.1881 31.232
177 2 8.45027 23.0832 30.6132
178 2 5.57668 16.3297 30.8251
179 2 3.05061 20.271 30.6132
180 2 0.177018 19.1419 30.8251
181 1 8.30125 18.8201 34.086
182 1 1.38163 20.5928 32.6477
183 1 2.90159 16.6515 34.086
184 1 6.78129 22.7614 32.6477
185 2 9.31191 21.1294 32.854
186 2 0.370971 18.2835 33.8797
187 2 3.91225 22.2248 32.854
188 2 5.77063 17.1881 33.8797
189 2 0.878579 23.0832 33.261
190 2 8.8043 16.3297 33.4728
191 2 6.27824 20.271 33.261
192 2 3.40464 19.1419 33.4728
193 1 0.74382 18.7585 36.7927
194 1 4.54201 20.429 35.3832
195 1 5.97353 16.9154 36.7991
196 1 10.1643 23.0284 35.0872
197 2 1.68703 20.922 35.5756
198 2 3.53262 18.0865 36.9281
199 2 6.68579 22.4633 35.5
200 2 8.96604 17.2149 36.4821
201 2 3.89868 23.3544 36.1681
202 2 1.24648 16.2685 35.9328
203 2 9.60075 20.4055 35.8833
204 2 7.01609 19.1403 36.0337
205 1 4.0341 19.1487 39.6673
206 1 7.8205 20.7199 37.8873
207 1 9.33037 16.8654 39.4022
208 1 2.14099 22.6314 38.0643
209 2 5.06222 21.0876 38.0736
210 2 6.98011 18.7438 39.7627
211 2 10.6621 22.0921 37.8748
212 2 1.14042 17.2923 39.4954
213 2 7.05982 22.9411 38.8841
214 2 4.46364 17.232 41.7529
215 2 1.93303 20.2041 38.4639
216 2 9.93736 19.3986 38.6754
217 1 7.08885 19.2637 42.389
218 1 0.202567 20.7023 40.8359
219 1 1.66416 16.7953 42.0008
220 1 5.63444 23.1411 40.7102
221 2 8.26049 21.403 41.3366
222 2 10.1691 18.568 42.1159
223 2 2.77598 21.9966 40.7556
224 2 6.07549 14.3718 43.6439
225 2 10.3696 23.2292 41.4286
226 2 7.56396 16.3932 41.4781
227 2 5.11379 20.4651 41.3343
228 2 2.05019 19.0683 41.7186
229 1 10.5791 19.023 44.9695
230 1 3.4516 20.743 43.4484
231 1 5.09438 16.5937 44.8649
232 1 8.98202 23.1998 43.5874
233 2 0.834934 21.1622 43.5149
234 2 2.99698 18.4491 45.0269
235 2 6.06232 22.4286 43.686
236 2 8.12582 17.5972 44.7838
237 2 2.95461 23.3653 44.2875
238 2 29.6389 17.2432 45.2337
239 2 8.36761 20.8511 44.0856
240 2 5.56048 19.3651 44.7398
241 1 3.24134 18.8117 47.5119
242 1 6.79792 20.4062 46.5961
243 1 8.52366 16.3929 47.4017
244 1 1.45097 23.0819 46.1703
245 2 3.8738 21.0112 46.1422
246 2 6.13469 18.2679 47.4625
247 2 6.53854 23.0167 47.0772
248 2 0.703292 17.5302 47.5297
249 2 9.66179 22.9789 46.2005
250 2 4.11087 16.3727 47.3546
251 2 1.29363 20.4066 46.8699
252 2 8.8165 19.0318 47.4048
253 1 15.8729 3.05499 31.4383
254 1 19.7526 4.82759 30
255 1 21.2726 0.886302 31.4383
256 1 14.353 6.99628 30
257 2 16.8836 5.36421 30.2063
258 2 18.742 2.51837 31.232
259 2 11.4839 6.45966 30.2063
260 2 13.3423 1.42292 31.232
261 2 19.2496 7.31804 30.6132
262 2 16.376 0.564542 30.8251
263 2 13.8499 4.50583 30.6132
264 2 10.9763 3.37675 30.8251
265 1 19.1006 3.05499 34.086
266 1 12.1809 4.82759 32.6477
267 1 13.7009 0.886302 34.086
268 1 17.5806 6.99628 32.6477
269 2 20.1112 5.36421 32.854
270 2 11.1703 2.51837 33.8797
271 2 14.7116 6.45966 32.854
272 2 16.5699 1.42292 33.8797
273 2 11.6779 7.31804 33.261
274 2 19.6036 0.564542 33.4728
275 2 17.0775 4.50583 33.261
276 2 14.204 3.37675 33.4728
277 1 11.6462 3.00069 36.9491
278 1 15.3462 4.62404 35.3375
279 1 16.791 0.837827 36.8306
280 1 20.7489 6.91099 35.1764
281 2 12.602 5.04919 35.5785
282 2 14.2542 2.3908 36.4659
283 2 17.9275 6.14131 35.4705
284 2 20.0474 1.85501 36.5004
285 2 15.1976 7.30184 35.8061
286 2 12.2629 0.531642 36.0918
287 2 20.2845 4.68559 35.9062
288 2 17.4347 3.20629 36.2656
289 1 14.6757 3.19776 39.1611
290 1 18.6836 4.93414 37.8104
291 1 20.1949 0.940722 39.2908
292 1 13.2488 7.15075 38.0597
293 2 15.4091 5.34147 38.2311
294 2 17.9605 2.89755 39.2627
295 2 21.2498 6.2149 38.2048
296 2 12.1822 1.53594 39.2517
297 2 18.1733 7.20921 38.5194
298 2 15.1445 0.623449 39.0141
299 2 12.5318 4.6879 38.6606
300 2 21.0102 3.46001 38.5054
301 1 18.0286 3.21588 42.0145
302 1 11.0773 4.95891 40.6128
303 1 12.2924 1.00365 42.1501
304 1 16.4791 7.03282 40.5286
305 2 18.7968 5.67268 40.9071
306 2 20.8937 2.34487 42.0522
307 2 13.4822 6.62269 41.1316
308 2 15.1333 1.74365 41.382
309 2 21.3594 7.78853 41.2511
310 2 18.5666 0.506073 41.4015
311 2 15.8721 4.65592 41.0196
312 2 13.1252 3.48031 41.1496
313 1 21.4107 3.24675 44.5683
314 1 14.4274 4.8783 43.4023
315 1 15.988 0.74243 45.4868
316 1 19.7227 7.09264 43.3959
317 2 11.7077 5.09551 43.5965
318 2 13.2453 2.15757 45.4535
319 2 16.6983 6.77856 43.5321
320 2 18.6744 1.66681 45
321 2 13.8686 7.38985 43.9076
322 2 10.9873 0.816317 44.5063
323 2 19.4108 4.57566 43.5798
324 2 16.3723 3.08137 43.9689
325 1 13.5375 2.91385 47.8722
326 1 17.887 4.50513 45.9203
327 1 19.6447 0.747984 47.4136
328 1 12.2589 7.38331 45.9651
329 2 14.9746 5.94127 45.9889
330 2 16.419 2.80691 47.1051
331 2 18.5643 9.60004 44.9315
332 2 11.4501 1.53679 47.4859
333 2 19.9744 6.68816 46.2665
334 2 13.9994 0.420499 47.8478
335 2 12.0918 4.71117 46.9544
336 2 19.7373 3.315 47.0634
337 1 15.8729 10.9376 31.4383
338 1 19.7526 12.7102 30
339 1 21.2726 8.76888 31.4383
340 1 14.353 14.8789 30
341 2 16.8836 13.2468 30.2063
342 2 18.742 10.401 31.232
343 2 11.4839 14.3422 30.2063
344 2 13.3423 9.3055 31.232
345 2 19.2496 15.2006 30.6132
346 2 16.376 8.44712 30.8251
347 2 13.8499 12.3884 30.6132
348 2 10.9763 11.2593 30.8251
349 1 19.1006 10.9376 34.086
350 1 12.1809 12.7102 32.6477
351 1 13.7009 8.76888 34.086
352 1 17.5806 14.8789 32.6477
353 2 20.1112 13.2468 32.854
354 2 11.1703 10.401 33.8797
355 2 14.7116 14.3422 32.854
356 2 16.5699 9.3055 33.8797
357 2 11.6779 15.2006 33.261
358 2 19.6036 8.44712 33.4728
359 2 17.0775 12.3884 33.261
360 2 14.204 11.2593 33.4728
361 1 11.5631 11.0415 36.9014
362 1 15.1764 12.4843 35.5118
363 1 16.9147 8.64523 36.8761
364 1 20.8664 14.9017 35.2616
365 2 12.5132 13.2858 35.4181
366 2 14.2379 10.4829 36.753
367 2 17.872 14.4903 35.4672
368 2 19.6615 9.36961 36.4883
369 2 14.5758 15.0564 35.7281
370 2 12.0543 8.266 36.0826
371 2 20.1633 12.4578 35.619
372 2 17.2381 11.2486 36.1634
373 1 14.622 10.8223 39.4014
374 1 18.6391 12.5129 37.9938
375 1 20.1383 8.8422 39.5098
376 1 12.9572 14.9841 38.1623
377 2 15.3018 13.1952 38.2836
378 2 17.2311 10.2117 39.3091
379 2 21.6749 13.9792 38.3824
380 2 11.9626 9.24461 39.2393
381 2 18.2617 15.268 38.5592
382 2 15.3206 8.36836 38.927
383 2 12.44 12.3979 38.6304
384 2 20.8482 11.4718 38.7899
385 1 17.9484 10.8003 42.6097
386 1 11.0197 12.7196 40.9277
387 1 12.5003 8.84181 42.2887
388 1 16.4106 14.8653 40.7406
389 2 19.0497 13.1803 40.8007
390 2 20.547 10.6438 41.6475
391 2 13.5959 14.3519 41.2695
392 2 15.3547 9.43723 42.4214
393 2 21.3583 15.1343 41.5785
394 2 18.4371 8.45603 41.6629
395 2 15.9287 12.4082 41.4084
396 2 13.2501 11.2358 41.5542
397 1 21.4498 11.168 45.0964
398 1 14.2859 12.3831 43.3492
399 1 15.8315 8.45369 45.3376
400 1 19.7286 14.9369 43.4303
401 2 11.4682 13.0628 43.6656
402 2 13.2789 10.1325 45.1195
403 2 17.0395 14.0071 43.7037
404 2 19.9343 11.4223 47.4501
405 2 13.4617 15.2574 43.9022
406 2 10.9534 8.79456 43.9083
407 2 19.3874 12.5624 44.6882
408 2 16.3015 10.881 44.8941
409 1 14.1203 11.0445 47.4297
410 1 17.907 12.7114 46.5705
411 1 19.0748 8.82371 47.5437
412 1 12.3746 14.6778 46.0681
413 2 14.7811 13.1376 45.9084
414 2 16.7222 10.0709 48.0444
415 2 25.0143 16.4282 47.5376
416 2 8.58147 11.5146 47.7938
417 2 19.8522 14.4533 46.6483
418 2 13.7276 8.38958 47.8874
419 2 12.1362 12.5091 47.3076
420 2 24.12 9.60317 45.1982
421 1 15.8729 18.8201 31.4383
422 1 19.7526 20.5928 30
423 1 21.2726 16.6515 31.4383
424 1 14.353 22.7614 30
425 2 16.8836 21.1294 30.2063
426 2 18.742 18.2835 31.232
427 2 11.4839 22.2248 30.2063
428 2 13.3423 17.1881 31.232
429 2 19.2496 23.0832 30.6132
430 2 16.376 16.3297 30.8251
431 2 13.8499 20.271 30.6132
432 2 10.9763 19.1419 30.8251
433 1 19.1006 18.8201 34.086
434 1 12.1809 20.5928 32.6477
435 1 13.7009 16.6515 34.086
436 1 17.5806 22.7614 32.6477
437 2 20.1112 21.1294 32.854
438 2 11.1703 18.2835 33.8797
439 2 14.7116 22.2248 32.854
440 2 16.5699 17.1881 33.8797
441 2 11.6779 23.0832 33.261
442 2 19.6036 16.3297 33.4728
443 2 17.0775 20.271 33.261
444 2 14.204 19.1419 33.4728
445 1 11.4468 19.0855 36.6904
446 1 15.3112 20.6491 35.6047
447 1 16.775 16.5668 36.7491
448 1 20.8374 23.0673 35.2515
449 2 12.8897 21.2398 35.9302
450 2 13.8229 18.6038 36.5975
451 2 17.7016 22.0541 35.4657
452 2 19.4735 16.8702 36.4965
453 2 14.7431 22.9849 35.8874
454 2 11.8414 16.5226 36.2589
455 2 20.3592 20.5266 36.0824
456 2 17.3024 19.1073 36.2602
457 1 14.6103 18.9308 39.5223
458 1 18.633 20.3842 38.2657
459 1 20.2385 16.4471 39.4352
460 1 13.3302 22.753 38.0097
461 2 15.8638 20.9701 38.5083
462 2 17.635 18.2292 39.0541
463 2 21.1856 22.4893 37.7035
464 2 12.0893 17.3485 39.3745
465 2 18.4253 22.8678 38.374
466 2 15.1044 16.1185 38.5505
467 2 12.6163 20.4042 38.7007
468 2 20.7447 19.2337 38.671
469 1 18.1263 19.1139 42.4128
470 1 11.0921 20.8197 40.7405
471 1 12.4058 17.0803 42.2621
472 1 16.2884 23.1511 40.9976
473 2 19.3363 20.9605 41.236
474 2 21.1396 18.6062 42.2652
475 2 13.3945 22.4174 40.6749
476 2 14.9562 17.1251 41.5409
477 2 21.4475 23.0951 41.259
478 2 18.2639 16.5447 41.8039
479 2 15.8862 20.3855 41.5225
480 2 13.0426 19.5339 42.3062
481 1 21.3693 18.7735 45.1788
482 1 14.5865 20.6372 43.8441
483 1 15.7072 16.2103 45.1322
484 1 19.7904 22.9492 43.3306
485 2 11.2847 21.5752 43.5646
486 2 14.0668 16.1965 47.2021
487 2 16.7095 22.7374 43.7744
488 2 18.9159 17.3574 45.1104
489 2 13.7332 23.2323 43.6833
490 2 10.6969 9.11647 47.2018
491 2 19.1564 20.451 44.227
492 2 16.4251 18.6787 44.8534
493 1 13.7328 18.616 47.4706
494 1 17.7759 20.4772 46.263
495 1 19.3519 16.7135 47.4684
496 1 12.2933 22.8731 45.9635
497 2 15.3871 21.2234 46.4167
498 2 12.4345 20.2701 46.0377
499 2 20.8758 22.3111 46.7223
500 2 11.1201 16.798 47.8975
501 2 17.8219 22.9325 46.9623
502 2 16.7316 18.2238 48.0029
503 2 13.7821 17.934 44.9142
504 2 19.66 19.0632 47.0926
505 1 26.6722 3.05499 31.4383
506 1 30.5519 4.82759 30
507 1 32.0719 0.886302 31.4383
508 1 25.1523 6.99628 30
509 2 27.6829 5.36421 30.2063
510 2 29.5413 2.51837 31.232
511 2 22.2833 6.45966 30.2063
512 2 24.1416 1.42292 31.232
513 2 30.0489 7.31804 30.6132
514 2 27.1753 0.564542 30.8251
515 2 24.6492 4.50583 30.6132
516 2 21.7756 3.37675 30.8251
517 1 29.8999 3.05499 34.086
518 1 22.9803 4.82759 32.6477
519 1 24.5002 0.886302 34.086
520 1 28.3799 6.99628 32.6477
521 2 30.9105 5.36421 32.854
522 2 21.9696 2.51837 33.8797
523 2 25.5109 6.45966 32.854
524 2 27.3693 1.42292 33.8797
525 2 22.4772 7.31804 33.261
526 2 30.4029 0.564542 33.4728
527 2 27.8769 4.50583 33.261
528 2 25.0033 3.37675 33.4728
529 1 22.6251 3.41658 36.6393
530 1 26.4126 5.03403 35.2741
531 1 27.4994 1.10682 37.0131
532 1 31.504 7.17671 35.2263
533 2 23.2379 5.7092 35.1571
534 2 25.3176 3.14821 36.713
535 2 28.7412 6.48518 35.0795
536 2 30.3047 1.61811 36.7649
537 2 25.9294 7.3521 36.0252
538 2 22.9735 0.907943 35.8989
539 2 31.0582 4.7376 35.8785
540 2 28.0567 3.34051 36.3086
541 1 25.3549 3.32849 39.461
542 1 29.3986 4.46761 37.9458
543 1 30.917 0.876679 39.5245
544 1 24.1462 7.12868 38.0838
545 2 26.4663 5.67611 38.1147
546 2 28.3425 2.55366 39.243
547 2 32.2193 6.455 38.0369
548 2 23.113 1.47919 38.9045
549 2 29.2615 7.27884 38.7041
550 2 25.9228 0.742971 39.056
551 2 23.6622 4.69652 38.6968
552 2 31.3244 3.16722 38.6646
553 1 28.7685 2.98684 42.1542
554 1 21.6666 5.14388 40.7316
555 1 23.3582 1.10579 41.9048
556 1 27.4829 7.05587 40.6034
557 2 29.6737 5.27999 40.8037
558 2 31.0952 2.05815 42.2841
559 2 23.9887 6.56435 40.7988
560 2 26.2999 1.48097 41.9856
561 2 32.2814 7.27427 41.1207
562 2 29.3761 0.470604 41.5651
563 2 26.4969 4.54985 41.1351
564 2 23.5156 3.84123 41.8085
565 1 32.2781 2.93426 44.8105
566 1 25.2016 4.84086 43.5344
567 1 26.6884 0.739244 44.9445
568 1 30.3128 6.94624 43.56
569 2 21.9181 5.90105 43.186
570 2 24.2665 1.95903 44.6581
571 2 27.5023 6.04012 43.7223
572 2 29.6492 1.09078 44.9654
573 2 24.7084 7.13446 44.0714
574 2 21.9639 0.394606 43.902
575 2 30.1097 4.48802 44.0525
576 2 27.506 3.19594 44.3295
577 1 24.5043 2.9121 47.1741
578 1 28.6294 4.8503 46.2048
579 1 29.9596 0.676618 47.37
580 1 23.0444 7.29276 46.0212
581 2 26.0849 4.83071 46.2088
582 2 27.688 2.32365 47.3586
583 2 32.3955 8.56792 44.2708
584 2 21.9443 1.75201 46.3514
585 2 31.2214 6.61035 46.649
586 2 25.0407 0.431623 47.3036
587 2 23.1068 4.64886 46.0453
588 2 30.5621 2.84644 46.8805
589 1 26.6722 10.9376 31.4383
590 1 30.5519 12.7102 30
591 1 32.0719 8.76888 31.4383
592 1 25.1523 14.8789 30
593 2 27.6829 13.2468 30.2063
594 2 29.5413 10.401 31.232
595 2 22.2833 14.3422 30.2063
596 2 24.1416 9.3055 31.232
597 2 30.0489 15.2006 30.6132
598 2 27.1753 8.44712 30.8251
599 2 24.6492 12.3884 30.6132
600 2 21.7756 11.2593 30.8251
601 1 29.8999 10.9376 34.086
602 1 22.9803 12.7102 32.6477
603 1 24.5002 8.76888 34.086
604 1 28.3799 14.8789 32.6477
605 2 30.9105 13.2468 32.854
606 2 21.9696 10.401 33.8797
607 2 25.5109 14.3422 32.854
608 2 27.3693 9.3055 33.8797
609 2 22.4772 15.2006 33.261
610 2 30.4029 8.44712 33.4728
611 2 27.8769 12.3884 33.261
612 2 25.0033 11.2593 33.4728
613 1 22.4101 11.0926 36.5309
614 1 26.089 12.4376 35.374
615 1 27.8913 8.81351 36.6619
616 1 31.5533 14.908 35.2579
617 2 23.3573 13.4089 35.14
618 2 24.8325 9.95975 36.281
619 2 29.2304 14.6332 35.3521
620 2 30.8819 9.48305 36.4962
621 2 26.0157 15.0756 35.4821
622 2 22.7526 8.56822 36.1937
623 2 31.1911 12.2014 36.2674
624 2 28.3032 11.4572 36.0774
625 1 25.64 10.8485 39.8011
626 1 29.4137 13.0399 37.7884
627 1 31.3762 8.90911 39.3552
628 1 24.2862 15.0648 38.0821
629 2 26.675 13.0843 38.7305
630 2 28.2275 10.2361 39.6023
631 2 32.0533 14.5298 37.7806
632 2 22.8242 9.61316 39.2702
633 2 29.0335 15.3988 38.5351
634 2 26.2904 8.38021 38.6212
635 2 24.4169 12.1787 37.5325
636 2 31.3189 11.5084 38.8451
637 1 28.9153 10.8832 42.298
638 1 21.9313 12.4721 40.7941
639 1 23.1672 8.77408 42.4966
640 1 27.5299 14.7421 40.825
641 2 29.7965 13.6515 40.9788
642 2 31.4393 10.6502 42.1565
643 2 24.5114 14.4819 41.1173
644 2 26.1376 9.01497 42.1341
645 2 32.2478 15.2106 41.1796
646 2 29.2013 8.28903 41.8758
647 2 27.1256 12.3514 41.6412
648 2 23.9705 11.0495 41.9955
649 1 32.1986 11.1575 45.0054
650 1 25.2722 12.7752 43.6191
651 1 26.7346 8.42823 44.9816
652 1 30.3277 15.1968 43.8012
653 2 22.088 13.1815 43.593
654 2 25.1171 7.99975 47.1434
655 2 27.5383 14.3955 44.1077
656 2 28.9686 7.38979 45.9689
657 2 24.4998 15.1321 44.1445
658 2 21.4201 8.65196 44.6941
659 2 30.1213 12.7824 44.0827
660 2 27.0759 11.1778 44.4938
661 1 24.6704 10.4329 48.0161
662 1 28.349 12.6383 46.1533
663 1 29.9693 8.96678 47.4379
664 1 22.8692 15.1387 46.1277
665 2 25.4091 12.887 47.3895
666 2 27.3638 9.84977 47.5589
667 2 0.206178 16.5596 44.347
668 2 17.7466 7.12842 46.1536
669 2 31.5534 14.8715 46.6134
670 2 22.1287 9.55626 47.4026
671 2 23.0001 12.5563 46.4228
672 2 29.2278 9.58645 44.6018
673 1 26.6722 18.8201 31.4383
674 1 30.5519 20.5928 30
675 1 32.0719 16.6515 31.4383
676 1 25.1523 22.7614 30
677 2 27.6829 21.1294 30.2063
678 2 29.5413 18.2835 31.232
679 2 22.2833 22.2248 30.2063
680 2 24.1416 17.1881 31.232
681 2 30.0489 23.0832 30.6132
682 2 27.1753 16.3297 30.8251
683 2 24.6492 20.271 30.6132
684 2 21.7756 19.1419 30.8251
685 1 29.8999 18.8201 34.086
686 1 22.9803 20.5928 32.6477
687 1 24.5002 16.6515 34.086
688 1 28.3799 22.7614 32.6477
689 2 30.9105 21.1294 32.854
690 2 21.9696 18.2835 33.8797
691 2 25.5109 22.2248 32.854
692 2 27.3693 17.1881 33.8797
693 2 22.4772 23.0832 33.261
694 2 30.4029 16.3297 33.4728
695 2 27.8769 20.271 33.261
696 2 25.0033 19.1419 33.4728
697 1 22.1991 18.7841 36.7302
698 1 26.2961 20.7444 35.3798
699 1 27.8731 16.5638 36.6546
700 1 31.4335 22.6448 35.0464
701 2 23.2698 21.271 35.5581
702 2 25.4581 17.7783 36.5497
703 2 28.8649 22.3917 35.4529
704 2 30.6931 17.2702 36.5839
705 2 25.639 23.0958 35.7565
706 2 22.7311 16.3512 36.0981
707 2 30.8364 20.1345 35.8796
708 2 28.1484 19.1595 36.5016
709 1 25.9367 18.8026 39.4856
710 1 29.4258 20.784 37.9808
711 1 30.7469 16.7373 39.3989
712 1 24.0559 22.8274 38.0891
713 2 26.4812 21.3499 38.3086
714 2 28.6631 18.2591 39.3801
715 2 31.9957 22.1875 38.3225
716 2 22.8369 16.7466 39.5405
717 2 28.8615 23.0241 38.6338
718 2 26.5269 16.1112 38.9542
719 2 23.8064 20.0896 38.5395
720 2 31.5375 19.0552 38.8257
721 1 29.016 19.0744 42.342
722 1 21.9196 20.6131 40.822
723 1 23.3916 16.5118 42.1346
724 1 26.9751 22.9284 40.9309
725 2 29.8767 21.4717 40.8808
726 2 31.7133 18.6631 42.1804
727 2 24.0968 22.4613 40.8708
728 2 25.9856 16.6298 42.1884
729 2 32.2862 23.1916 41.1694
730 2 29.1917 16.787 41.7014
731 2 26.7571 20.2774 41.2138
732 2 24.1716 19.1689 41.6087
733 1 32.1996 19.183 45.4175
734 1 25.2956 20.4684 43.5913
735 1 26.4405 16.784 45.3602
736 1 30.6154 22.7997 43.4851
737 2 22.2404 21.0696 43.5532
738 2 22.2767 16.7891 48.1559
739 2 27.6898 21.9442 43.2695
740 2 28.4037 14.8853 46.6066
741 2 24.8337 22.9193 43.7051
742 2 21.3967 16.2762 44.3134
743 2 30.32 20.3599 44.2225
744 2 27.582 19.2151 44.4076
745 1 24.3877 18.7702 47.8976
746 1 28.5623 20.2345 46.4392
747 1 29.8675 16.6378 47.6222
748 1 23.1519 22.9235 45.657
749 2 23.2557 20.2429 46.1327
750 2 27.4642 18.0806 47.6791
751 2 27.9011 22.7066 46.5681
752 2 17.4074 15.1272 46.7797
753 2 31.237 22.4029 46.2599
754 2 23.9275 17.6365 45.7028
755 2 26.0364 19.4127 46.1553
756 2 30.4741 18.7337 47.3326
