variable        NSTEPS1         equal 900000000
variable        DUMP_FREQ       equal 2000
variable        DUMP_FREQ1      equal 2000
variable        TEMP            equal 550
variable	      SEED1           equal 42771
variable	      SEED2           equal 54489 
variable        TAU_T           equal 0.05
variable        TAU_P           equal 0.25

units           metal
boundary        p p f

restart 200000 lmp.restart
atom_style      atomic
neigh_modify    delay 10 every 1

read_restart   lmp.restart.40800000
#read_data     data.lmp
mass          1 137.327
mass          2 2.014
group         bottom id 1 2 3 4 5 6 7 8 9 10 11 12 13 14 15 16 17 18 19 20 21 22 23 24 85 86 87 88 89 90 91 92 93 94 95 96 97 98 99 100 101 102 103 104 105 106 107 108 169 170 171 172 173 174 175 176 177 178 179 180 181 182 183 184 185 186 187 188 189 190 191 192 253 254 255 256 257 258 259 260 261 262 263 264 265 266 267 268 269 270 271 272 273 274 275 276 337 338 339 340 341 342 343 344 345 346 347 348 349 350 351 352 353 354 355 356 357 358 359 360 421 422 423 424 425 426 427 428 429 430 431 432 433 434 435 436 437 438 439 440 441 442 443 444 505 506 507 508 509 510 511 512 513 514 515 516 517 518 519 520 521 522 523 524 525 526 527 528 589 590 591 592 593 594 595 596 597 598 599 600 601 602 603 604 605 606 607 608 609 610 611 612 673 674 675 676 677 678 679 680 681 682 683 684 685 686 687 688 689 690 691 692 693 694 695 696
group         atoms1 subtract all bottom

pair_style deepmd ${potential_path}/graph-1.pb /work/atosello/BaH2/3.TRAININGS/training11/train2/graph11-2.pb /work/atosello/BaH2/3.TRAININGS/training11/train3/graph11-3.pb /work/atosello/BaH2/3.TRAININGS/training11/train4/graph11-4.pb out_freq ${DUMP_FREQ}
pair_coeff * *

# COMPUTE

# TIMESTEP
timestep	0.0005  #ps 
thermo          ${DUMP_FREQ}
thermo_style    custom step temp pe ke etotal density press vol
thermo_modify   flush yes

# DUMP
dump            myDump all xyz ${DUMP_FREQ1} dump.4.xyz
dump_modify     myDump append yes element Ba H
#dump            myDump3 all atom ${DUMP_FREQ1} dump.lammpstrj
#dump_modify     myDump3 append yes


# run- NVT
#velocity        all create ${TEMP} ${SEED2} dist gaussian
fix             2 atoms1 nve
fix             3 atoms1 temp/csvr ${TEMP} ${TEMP} ${TAU_T} ${SEED2}
run             ${NSTEPS1}
