# LAMMPS data file
1152 atoms
3 atom types
0.0 27.951783 xlo xhi
0.0 25.719546 ylo yhi
0.0 32.32357 zlo zhi

Atoms # atomic

1 1 1.01758 0.536374 0.357399
2 1 1.23684 0.813491 7.93221
3 1 1.07156 4.92353 0.431918
4 1 1.23156 4.88652 8.72603
5 1 1.19408 9.08395 0.089528
6 1 1.24626 9.43285 8.18495
7 1 8.73869 0.753297 -0.0589374
8 1 8.20848 0.128912 8.32611
9 1 7.62349 5.06825 0.125754
10 1 7.97262 5.783 8.62658
11 1 8.34496 9.34227 0.0091353
12 1 8.13947 9.75712 8.38281
13 1 5.25565 2.91667 6.92886
14 1 4.72436 2.66585 15.0404
15 1 4.55271 7.18188 7.14131
16 1 4.98911 6.74397 14.4959
17 1 4.46456 11.552 7.11734
18 1 4.74957 11.3278 14.6817
19 1 11.4228 2.73127 6.95065
20 1 11.3573 2.97693 14.7018
21 1 11.6662 7.20782 6.29495
22 1 11.7628 6.9853 15.2915
23 1 12.0208 11.4938 6.6321
24 1 11.911 11.0326 15.1068
25 1 1.11282 2.86798 4.58193
26 1 0.970477 2.52919 12.2661
27 1 1.09696 7.2939 4.13074
28 1 1.35277 6.73264 12.5097
29 1 1.21941 11.0389 4.16591
30 1 1.66694 11.5204 12.0034
31 1 7.66694 2.82336 4.04007
32 1 8.04555 2.91179 12.0784
33 1 7.86495 7.04205 4.58884
34 1 8.34699 7.59273 12.4631
35 1 8.23047 11.5269 4.05071
36 1 8.82545 11.5711 12.9669
37 1 4.22577 0.991698 2.94332
38 1 4.70103 0.854216 10.6005
39 1 4.7374 5.06383 2.46131
40 1 4.68942 5.03583 10.8398
41 1 4.78743 9.46611 2.63898
42 1 4.73289 9.72448 10.4673
43 1 11.9148 0.733641 2.89741
44 1 11.3847 0.741475 10.6058
45 1 11.3244 4.79901 2.65057
46 1 11.7726 5.13795 11.015
47 1 11.5533 9.44329 2.86473
48 1 11.8838 9.38784 10.4562
49 3 13.6154 4.63541 29.4051
50 2 23.6392 4.80447 21.8366
51 2 26.7463 19.9631 20.359
52 2 13.3987 1.36018 5.40167
53 3 17.556 9.04463 13.0842
54 3 6.4917 3.54855 9.75492
55 2 19.7399 15.2538 25.5219
56 2 1.32702 4.89096 27.2876
57 2 3.913 6.96888 20.1924
58 2 14.1113 13.2833 12.691
59 2 27.6216 11.7211 24.5006
60 2 13.5486 0.708191 22.9428
61 2 24.7956 0.537967 8.15893
62 2 24.485 7.14093 25.1239
63 2 7.52743 3.22961 23.4568
64 2 3.38009 22.4748 4.5075
65 2 5.42134 12.6829 16.7215
66 2 9.93537 5.13103 13.3051
67 2 0.774926 4.84455 18.7628
68 2 5.52515 7.28007 12.0269
69 2 8.12935 2.91554 14.7364
70 2 12.0031 0.469418 0.141966
71 2 6.98674 5.28734 12.6046
72 2 11.7227 13.4944 8.07247
73 2 4.50411 13.4503 0.136376
74 2 10.0355 7.43521 24.9498
75 2 3.30101 17.6421 14.123
76 2 16.8943 13.1302 5.76425
77 2 16.8981 24.1073 1.7269
78 2 2.66112 23.8826 23.6941
79 2 2.24024 21.8279 11.394
80 2 19.1519 0.700478 15.6893
81 2 21.3783 24.3625 23.1797
82 3 11.6115 0.435341 7.99204
83 2 25.7614 4.68889 -0.0781738
84 2 9.93039 0.862995 13.7287
85 2 11.7684 11.3034 12.2625
86 2 22.3255 0.608182 19.3958
87 2 23.1717 17.7996 2.92089
88 2 0.906122 11.7892 31.5572
89 2 26.3256 15.9085 20.7725
90 2 20.5213 6.88156 24.9659
91 2 13.1355 7.81081 8.48006
92 2 15.1682 19.6543 23.0322
93 2 24.7702 15.321 28.5896
94 2 12.8941 22.2692 8.83588
95 2 26.8515 4.75424 8.18348
96 2 4.85707 0.125852 24.4125
97 2 19.2815 15.2316 4.23516
98 2 7.9543 0.572887 11.0669
99 2 5.82977 19.3287 20.2219
100 2 20.4641 9.26857 22.344
101 2 21.3917 17.9813 26.5698
102 2 16.287 15.5765 31.1735
103 3 9.33913 3.26342 31.5582
104 2 26.7947 2.9329 28.3088
105 2 22.7711 21.6851 10.5378
106 3 6.16635 3.09758 1.40099
107 3 6.6222 24.5942 -0.0186888
108 3 6.04554 5.68495 5.79253
109 3 -0.281505 17.9742 12.8977
110 2 11.0975 7.11064 20.2895
111 2 3.37801 13.9836 14.4738
112 2 6.65194 16.1247 1.19837
113 2 23.0663 20.1141 31.2201
114 2 -0.626814 5.11858 5.31979
115 2 2.54218 7.51413 25.1437
116 3 16.9537 15.9225 17.9975
117 2 -0.500923 13.6595 21.7361
118 2 24.6662 24.3174 4.08631
119 2 16.8645 0.804064 29.3359
120 2 6.08905 18.2845 29.9198
121 2 14.4648 11.127 31.0386
122 2 2.56211 0.355368 30.5608
123 3 0.637962 13.5815 3.45161
124 2 24.591 11.7214 1.10597
125 2 7.55399 15.6615 25.9078
126 2 7.69743 13.7632 2.96747
127 2 12.3024 19.7605 17.7918
128 2 19.7894 19.6724 19.9473
129 2 6.86702 0.480646 5.88998
130 2 20.4436 2.21146 25.2195
131 2 13.3331 22.5873 13.6234
132 3 2.74824 15.7305 17.6625
133 2 5.25257 5.0095 5.50124
134 2 10.7167 -0.0270291 7.77618
135 2 7.02885 24.7348 0.96731
136 2 6.99815 3.0286 9.03983
137 2 6.53903 2.29915 0.841259
138 2 16.7534 8.77161 13.7852
139 2 0.212566 17.8281 13.8822
140 2 2.37139 14.8018 17.9918
141 2 9.97642 3.78664 -0.123057
142 2 1.71825 13.6469 3.64199
143 2 17.2625 15.2281 18.6804
144 2 14.2568 4.60788 30.263
145 1 1.19027 0.480435 16.4848
146 1 1.4083 0.557389 24.6432
147 1 1.54351 5.02189 16.1696
148 1 1.40983 5.16417 24.4589
149 1 1.92049 9.52486 16.3786
150 1 1.11216 9.57344 24.2974
151 1 8.42874 0.554292 16.4697
152 1 8.21352 0.328252 24.1278
153 1 8.2861 4.95572 16.555
154 1 8.51865 5.13978 24.8159
155 1 8.42179 9.16775 16.2872
156 1 8.11654 8.79591 24.3092
157 1 4.77432 2.95824 23.2926
158 1 4.45149 2.37554 31.4772
159 1 4.43943 7.21709 22.9421
160 1 4.53845 7.05973 30.5677
161 1 5.11097 11.6861 22.6096
162 1 5.20244 11.5563 30.6625
163 1 11.4748 2.5556 22.6991
164 1 11.9253 2.5352 30.5623
165 1 11.8287 7.15359 22.8786
166 1 11.7467 6.86391 31.065
167 1 12.2753 11.3723 23.346
168 1 11.5549 11.424 30.9237
169 1 1.23582 2.53488 20.0914
170 1 1.58463 2.78019 28.3542
171 1 1.56048 6.89619 20.0183
172 1 0.73526 7.48808 28.0454
173 1 1.91148 11.6697 20.4813
174 1 1.65657 11.7274 28.842
175 1 8.07271 2.33733 20.9756
176 1 7.82065 2.59745 28.9335
177 1 8.32862 7.34074 20.5333
178 1 8.6523 7.30204 28.3172
179 1 8.71325 11.2677 21.5201
180 1 8.62718 11.4935 28.4088
181 1 5.20232 0.506633 19.1787
182 1 5.1725 0.552648 27.5066
183 1 4.84837 4.75462 18.7402
184 1 5.00782 4.90618 27.0061
185 1 4.93229 9.14601 19.0757
186 1 5.61286 9.53914 26.768
187 1 12.2467 0.502085 18.3435
188 1 11.8419 0.633073 26.6894
189 1 12.0043 4.93838 19.2525
190 1 11.9157 4.68343 26.9669
191 1 11.8954 9.13857 19.0507
192 1 12.0872 9.30799 26.9826
193 3 24.3073 11.0759 17.5548
194 2 5.24685 17.7991 24.2818
195 2 12.9453 4.62515 13.3015
196 2 24.1148 11.4924 9.79712
197 3 3.27925 17.7731 21.4604
198 3 22.0636 24.1811 14.681
199 2 22.8674 24.2569 7.15881
200 2 20.4467 24.0843 9.03602
201 2 14.2313 15.2369 15.0685
202 2 26.4811 19.8014 28.6422
203 2 18.2636 3.57236 4.49371
204 2 19.303 11.1546 20.3736
205 2 7.28563 13.7796 22.2691
206 2 24.8211 21.8747 8.0379
207 2 16.9928 24.0351 26.1495
208 2 2.79418 6.94088 17.7318
209 2 7.45775 11.2642 23.7263
210 2 5.15632 9.5768 24.3705
211 2 13.8665 22.079 5.317
212 2 10.811 15.7533 4.44762
213 2 26.661 3.00309 20.5746
214 2 7.29026 10.8717 14.8082
215 2 13.3458 6.77922 17.8974
216 2 26.9298 21.8647 29.2905
217 2 5.4131 0.208658 8.33774
218 2 1.14225 9.18561 18.7143
219 2 2.85692 15.8305 1.66311
220 2 16.2234 9.43 2.79931
221 2 6.56763 9.18592 6.29145
222 2 24.7468 17.7506 24.2968
223 2 3.47728 25.0006 1.06668
224 2 10.6675 4.87451 16.6724
225 2 -0.228503 24.2409 15.3243
226 3 2.5707 21.3473 30.353
227 2 2.07256 0.0201849 10.5555
228 2 -0.158981 7.3577 9.27625
229 2 16.1313 6.51594 6.68482
230 2 26.2801 22.2743 24.2795
231 2 21.7761 13.4271 2.52516
232 2 16.6551 2.74322 9.47363
233 2 1.48176 19.8539 22.9082
234 2 23.956 15.298 8.7674
235 2 7.49506 2.27387 7.13387
236 2 12.4511 22.0652 24.5639
237 2 19.3886 5.28058 8.29255
238 2 13.9061 7.37542 2.2967
239 2 23.588 17.8162 13.8778
240 2 21.0265 2.3939 17.4576
241 2 9.50211 24.1065 7.19118
242 2 13.5034 6.75156 26.122
243 2 22.5096 15.7635 6.66822
244 2 13.0873 8.97147 24.3034
245 2 22.7731 9.3233 27.2666
246 2 13.4551 2.89568 18.0421
247 3 23.9355 13.606 14.158
248 2 9.8415 15.083 17.6193
249 2 12.4052 13.4559 16.0438
250 3 9.85574 0.436632 21.9073
251 3 6.85184 6.70687 26.1852
252 3 12.9556 9.54265 4.82971
253 3 13.6123 13.464 22.1353
254 2 23.4716 20.6777 14.511
255 2 3.94389 3.0234 28.6296
256 2 16.6021 6.68033 26.0377
257 2 9.34346 13.6038 27.112
258 2 7.27646 9.93394 11.4678
259 2 21.2563 2.88489 7.18814
260 3 23.798 24.2556 26.0693
261 2 26.9569 9.73647 16.0765
262 2 2.44311 17.6182 10.6565
263 2 20.5581 4.93572 13.6234
264 2 13.3734 22.4055 29.2009
265 2 20.2917 0.249691 5.63206
266 2 2.62152 7.24062 10.0176
267 3 6.34961 15.7034 17.3807
268 2 1.73535 11.9364 7.04311
269 2 24.936 15.4992 12.3022
270 2 0.493271 9.77975 27.2701
271 2 6.64592 0.237116 21.5367
272 2 11.0725 13.4645 0.170414
273 2 6.84268 14.1166 5.53688
274 2 15.5282 11.2847 23.6023
275 2 24.494 18.4912 0.289381
276 3 6.50958 15.5383 9.27581
277 2 13.5554 9.72861 5.68566
278 2 2.77585 22.0716 29.556
279 2 6.00558 6.86981 25.6639
280 2 21.4187 24.9475 14.3581
281 2 10.6844 0.19967 21.1985
282 2 2.53154 17.7723 22.1094
283 2 12.748 13.376 21.5366
284 2 7.3937 15.4943 9.86054
285 2 23.7785 14.6782 14.1041
286 2 7.32293 15.5942 17.7353
287 2 24.661 24.4214 25.4959
288 2 24.1639 11.3228 18.5638
289 1 1.52854 13.801 0.900978
290 1 0.834262 14.0197 8.53135
291 1 1.68221 17.3782 -0.252586
292 1 1.47412 18.3348 7.70319
293 1 1.19586 21.5334 0.203147
294 1 1.17238 22.4683 8.68842
295 1 8.43969 13.7713 0.580906
296 1 8.35973 13.7641 8.28338
297 1 8.11782 18.0701 0.257097
298 1 8.09614 17.9911 7.83669
299 1 7.97538 22.3563 -0.323127
300 1 8.68807 22.1732 8.43437
301 1 5.07877 15.8505 7.11378
302 1 5.14193 15.8199 14.8389
303 1 5.00942 20.059 6.45466
304 1 4.51449 19.7567 15.1874
305 1 4.60583 24.1262 6.35346
306 1 4.67226 24.059 15.1164
307 1 11.7423 15.6234 6.67729
308 1 11.7154 15.3726 14.5365
309 1 12.0072 19.8598 6.98262
310 1 11.6009 20.0341 15.4605
311 1 12.2729 23.917 6.89987
312 1 11.6818 24.1318 14.7923
313 1 1.26027 16.0652 4.01883
314 1 1.19544 15.9877 12.1782
315 1 1.41487 20.7442 4.16131
316 1 1.46881 19.9996 12.6524
317 1 1.29968 24.3512 4.51528
318 1 1.61037 24.2089 12.792
319 1 8.18793 15.7198 4.31359
320 1 8.39508 15.9029 12.4293
321 1 8.1999 20.1181 4.14771
322 1 8.05296 20.1475 13.5318
323 1 8.47817 24.554 4.55014
324 1 7.80204 24.4307 12.4174
325 1 4.80281 13.1756 2.68171
326 1 4.98805 13.5833 10.5343
327 1 4.73527 17.8608 2.44558
328 1 5.02789 17.8457 10.5954
329 1 5.03735 22.1204 2.70447
330 1 5.11245 21.8707 10.5286
331 1 12.3123 13.95 2.80531
332 1 12.1179 13.6183 10.4881
333 1 11.4432 17.8985 2.74864
334 1 11.5883 17.7158 11.0886
335 1 11.6472 21.8242 3.23319
336 1 11.548 21.8242 11.2071
337 3 6.26556 0.650582 29.7738
338 2 5.64232 11.4849 28.3147
339 2 14.2849 6.99105 31.3467
340 2 3.49442 6.99286 28.4233
341 3 3.42643 5.04974 13.8495
342 3 9.87637 9.26832 14.1984
343 2 12.4474 22.5312 0.58936
344 2 19.1161 8.79715 16.4996
345 2 16.0136 19.4757 17.6229
346 2 2.67881 4.61325 21.9768
347 2 18.1855 13.5621 -0.043072
348 2 18.6642 24.2399 28.7306
349 2 0.462699 19.7331 15.1978
350 2 4.79622 11.3946 20.2267
351 2 15.0428 17.2617 27.1717
352 2 3.55469 21.7324 8.08291
353 2 21.9863 9.48473 11.0332
354 2 3.90528 5.52734 24.5268
355 2 20.9871 9.76514 13.4928
356 2 21.2018 0.977632 2.97712
357 2 -0.119099 0.612156 29.9729
358 2 16.948 19.2221 1.67589
359 2 26.791 11.0182 20.0407
360 2 21.6227 6.54765 15.377
361 2 20.9687 24.0171 18.2091
362 2 4.40472 17.3123 0.0657007
363 2 6.486 11.183 1.25829
364 2 10.4625 4.99104 6.55832
365 2 21.5103 4.82298 26.94
366 2 7.66763 6.62142 22.6933
367 2 24.0185 22.2362 29.6715
368 2 2.95429 11.7481 17.8061
369 2 8.10684 15.7732 31.4451
370 3 13.5542 5.33709 5.63846
371 2 20.6698 12.9794 30.5658
372 2 3.02635 18.2481 29.4353
373 2 6.08157 7.81355 9.1545
374 2 26.2717 22.3287 0.0993513
375 2 20.6487 4.50467 30.4567
376 2 10.7655 1.59273 16.7967
377 2 5.25496 15.8923 28.3844
378 2 24.0043 7.64982 1.45021
379 2 16.3896 13.4076 19.9452
380 2 4.62302 11.5652 12.3591
381 2 16.4803 2.01752 26.6436
382 2 26.9037 19.94 2.84649
383 2 27.4566 10.938 1.85494
384 2 3.85182 20.0206 3.54375
385 2 8.49068 4.76857 27.5239
386 2 17.5132 1.00357 0.523421
387 2 23.4264 2.18977 2.06624
388 2 8.81471 9.32869 2.80775
389 2 4.49757 9.57014 0.252836
390 2 13.722 11.6051 26.0321
391 3 2.84683 22.2797 14.1836
392 2 3.06958 19.8268 25.9671
393 2 9.92249 23.7005 25.1982
394 3 3.98848 5.02661 0.0684034
395 3 6.87415 17.9383 5.47626
396 3 20.4687 22.0619 29.6841
397 3 3.17993 0.230291 20.9865
398 2 14.3991 4.56194 19.304
399 2 20.2052 20.934 16.707
400 2 26.7598 -0.0755412 24.7792
401 2 22.6266 17.5465 19.3305
402 2 8.13969 13.0767 18.8937
403 2 18.2324 13.9294 8.10269
404 3 6.50109 20.0906 1.31674
405 2 22.7514 2.15021 14.8749
406 2 12.0363 9.0608 -0.0399201
407 2 27.3585 19.7636 25.8741
408 2 2.86559 1.37744 5.42404
409 2 23.3808 11.5718 30.6605
410 2 11.739 17.9287 0.41828
411 3 5.86512 21.5843 15.976
412 2 21.3804 15.1573 22.8657
413 2 4.7274 9.3529 16.5573
414 2 4.42335 21.9449 24.4433
415 2 11.8118 17.367 16.4344
416 2 15.7251 8.83048 27.4627
417 2 7.80402 20.3515 23.1211
418 2 23.913 15.4053 1.58177
419 2 24.1652 0.888573 21.7674
420 3 6.32217 11.6513 9.13248
421 2 19.7764 22.7806 29.6884
422 2 12.7176 4.72342 5.77158
423 2 5.82074 17.894 5.40594
424 2 10.8004 8.99815 13.6442
425 2 3.35596 5.06427 31.5392
426 2 3.07335 4.14484 13.5094
427 2 3.16662 0.585961 21.9692
428 2 6.9699 11.6472 9.89677
429 2 3.24619 22.0761 13.3009
430 2 6.52564 20.9636 16.5116
431 2 7.49815 20.0926 1.55906
432 2 6.42877 0.093465 30.5739
433 1 1.38112 13.4853 16.1411
434 1 1.14678 13.654 24.6305
435 1 1.14481 17.6854 16.4365
436 1 1.44912 17.7921 24.6158
437 1 1.22803 22.16 16.0167
438 1 1.4952 21.9303 24.1788
439 1 7.90275 13.2635 16.3787
440 1 8.27072 13.5053 24.6856
441 1 8.14885 17.5564 16.4999
442 1 8.16265 18.0286 24.7718
443 1 8.47185 22.3864 16.5833
444 1 7.66067 22.2587 25.1063
445 1 4.66863 15.7774 22.9813
446 1 5.42208 15.6281 30.9314
447 1 4.89873 19.7525 22.7501
448 1 4.8743 20.1481 31.0067
449 1 4.80969 24.1221 22.3126
450 1 4.57741 24.1529 30.9471
451 1 11.9742 15.3988 23.1885
452 1 11.7733 15.581 30.6894
453 1 12.1834 19.7209 22.9575
454 1 11.8768 20.2705 31.6176
455 1 11.3371 24.1779 23.1342
456 1 12.4271 24.2863 30.6613
457 1 1.03947 16.0694 20.2782
458 1 1.34828 15.5162 28.0491
459 1 1.45826 20.127 20.3204
460 1 1.30629 20.0276 28.3623
461 1 1.49742 24.3397 20.382
462 1 0.972896 24.0654 28.9303
463 1 8.53607 15.494 20.6399
464 1 8.30715 15.7289 28.5585
465 1 8.63721 19.8454 21.1219
466 1 8.48788 19.9121 28.6283
467 1 8.45606 23.9469 20.7298
468 1 8.57309 24.2225 28.7124
469 1 4.85844 13.4584 18.6159
470 1 4.70515 13.6032 27.2491
471 1 4.55561 17.4145 19.0629
472 1 4.63062 17.8944 27.5404
473 1 4.65119 21.873 18.3455
474 1 4.41337 21.9505 27.0831
475 1 11.4154 13.1549 18.2997
476 1 11.8553 13.5785 26.7643
477 1 11.5996 17.3045 18.7525
478 1 11.6529 17.44 26.7636
479 1 11.6406 21.8619 19.7421
480 1 11.8281 21.7923 26.9274
481 3 0.54121 22.7762 2.40161
482 2 23.8278 9.26335 21.538
483 2 16.2754 24.1326 22.7702
484 2 12.1453 4.77859 0.129937
485 3 24.6299 3.09838 25.2989
486 3 0.588566 7.04851 30.7406
487 2 2.80744 9.1482 29.9443
488 2 17.7944 22.2118 0.163487
489 2 15.8855 15.336 22.9121
490 2 8.85347 17.9362 19.0122
491 2 12.3413 2.39785 27.8954
492 2 7.7188 7.12266 30.7585
493 2 10.8434 7.18412 17.9072
494 2 22.8929 19.6804 23.547
495 2 16.9444 11.3328 26.1623
496 2 10.3483 20.0203 26.2062
497 2 20.3762 4.47868 21.7668
498 2 19.9102 11.9228 12.8652
499 2 13.9289 17.0138 30.3657
500 2 0.0381958 7.14203 25.5051
501 2 27.6408 12.0448 9.64135
502 2 9.25795 22.1082 27.6044
503 2 21.9895 21.7779 19.3724
504 2 10.8563 15.7756 28.3262
505 2 6.03275 8.8584 21.7843
506 2 24.8279 18.185 8.38673
507 2 23.8807 6.50496 18.0097
508 2 6.38191 6.99966 2.01401
509 2 15.1588 9.18652 19.2308
510 2 17.2851 12.1646 29.4494
511 2 16.4425 18.5403 30.2641
512 2 12.1922 19.3705 20.282
513 2 4.03135 9.48066 8.25654
514 3 6.55249 22.0762 29.7357
515 2 4.04673 24.4433 3.88404
516 2 18.3508 9.27577 24.3025
517 2 6.47201 23.7243 26.9948
518 2 0.533226 15.8088 6.55763
519 2 25.4721 15.9567 3.93727
520 2 13.5535 17.6128 12.9999
521 2 26.1868 9.78054 8.12081
522 2 4.99579 19.9461 12.3329
523 2 9.8504 22.2402 14.2144
524 2 9.12323 15.4476 6.4674
525 2 27.2936 15.6359 9.96874
526 2 9.82266 15.8316 25.5616
527 2 7.81847 4.8321 19.44
528 2 19.3924 2.03294 19.9962
529 2 27.0261 2.93382 2.5001
530 2 0.27423 18.2538 18.5769
531 2 17.095 7.19893 0.991277
532 2 22.0424 16.0595 31.1056
533 2 19.6717 11.4077 28.5635
534 2 20.8134 9.37324 30.2015
535 3 10.1909 22.0053 21.9074
536 2 9.6752 4.57977 20.9078
537 2 -0.107376 3.12002 25.0275
538 3 10.1352 11.2867 16.8681
539 3 13.9668 24.5383 26.3985
540 3 3.08451 19.7421 17.6106
541 3 17.2797 2.96443 17.1861
542 2 17.7342 0.902011 23.8343
543 2 26.7372 5.09498 23.6348
544 2 14.3121 7.03994 14.8612
545 2 16.6461 4.87354 28.5182
546 2 1.98038 7.30083 6.99102
547 2 2.7758 2.19833 25.9757
548 3 6.26138 20.2658 26.6414
549 2 6.79622 13.512 14.3083
550 2 0.352279 2.63029 14.8105
551 2 23.7547 3.25655 8.86065
552 2 20.4649 11.5391 8.63488
553 2 27.5226 17.8674 22.3736
554 2 20.8708 15.5971 9.8039
555 3 2.92994 24.3127 17.592
556 2 11.8459 11.5319 20.2895
557 2 12.5753 1.92896 20.4695
558 2 13.8372 11.5742 18.2618
559 2 24.0458 9.32409 5.44593
560 2 24.0045 20.2674 2.07639
561 2 11.2897 24.2628 28.1227
562 2 14.1661 22.2653 19.0501
563 2 1.38986 0.720024 3.15101
564 3 13.5667 2.92611 25.5717
565 2 2.05825 19.6682 17.7792
566 2 6.35369 22.2581 28.7622
567 2 13.3593 23.8381 26.8772
568 2 1.60093 6.84761 30.3051
569 2 9.43267 11.4212 17.5795
570 2 24.1617 3.49535 26.2131
571 2 17.5553 2.38667 17.9951
572 2 12.6746 2.70106 25.1533
573 2 9.66676 21.5884 22.6375
574 2 3.08127 25.2979 17.2423
575 2 6.51854 19.8172 25.704
576 2 0.270266 23.616 1.91292
577 1 14.9276 0.752344 0.701787
578 1 15.1937 0.748513 8.04317
579 1 14.9533 5.19585 0.779714
580 1 15.0017 5.01195 8.2044
581 1 14.7674 9.3871 0.497745
582 1 15.5686 9.22211 8.83666
583 1 22.1715 0.530605 0.555089
584 1 22.273 0.795492 8.41608
585 1 22.5791 4.86674 0.281503
586 1 22.1072 5.05802 8.66332
587 1 22.4685 9.21322 0.040433
588 1 22.5214 9.44467 8.33388
589 1 18.5679 2.63636 7.10663
590 1 18.5364 2.9833 14.9741
591 1 18.9182 7.25413 6.68858
592 1 18.9725 7.03012 14.4171
593 1 18.7107 11.5279 6.54282
594 1 18.6253 11.2536 14.9056
595 1 25.6595 2.8517 6.8718
596 1 25.9594 2.74726 14.5952
597 1 25.961 7.00176 7.26565
598 1 26.1147 7.19696 14.784
599 1 25.6744 11.3456 6.46659
600 1 25.4486 11.4169 15.1278
601 1 14.8357 3.19555 4.46872
602 1 14.6878 2.88646 12.2979
603 1 15.0434 7.20714 4.2836
604 1 15.3106 7.028 12.0926
605 1 15.3604 11.4251 4.12764
606 1 15.7893 11.1348 12.4675
607 1 22.2611 2.90813 4.36475
608 1 21.9547 2.84025 12.3896
609 1 22.5819 7.38812 4.51714
610 1 22.3903 7.101 12.3206
611 1 22.2569 11.4856 4.32109
612 1 22.7631 11.4797 12.6048
613 1 18.6078 0.519309 2.95795
614 1 18.4225 0.779986 11.2575
615 1 18.7835 4.95552 2.41932
616 1 18.5853 5.01697 10.9679
617 1 19.208 8.9999 2.73081
618 1 19.1933 9.48941 11.2408
619 1 25.3755 0.717802 2.87842
620 1 25.628 0.246248 10.6576
621 1 25.5426 5.15454 2.78668
622 1 25.6222 5.38165 10.8581
623 1 25.6958 9.15906 2.91718
624 1 25.9858 9.60987 10.4162
625 3 20.2275 17.9584 12.7657
626 2 8.73309 4.68858 3.08501
627 2 19.8122 4.86665 16.5774
628 2 24.7292 13.3699 23.9724
629 3 17.2903 13.5587 14.205
630 3 18.8808 15.2531 28.5174
631 2 13.5201 17.4994 6.66618
632 2 20.8619 16.214 1.90985
633 2 17.1927 8.82904 29.8811
634 2 2.87299 11.6664 9.46026
635 2 1.93901 15.5921 23.1627
636 2 1.31577 11.2196 14.7169
637 2 0.632993 3.15102 6.85187
638 2 3.46154 9.07285 13.6638
639 2 19.9264 7.00675 28.391
640 2 18.0171 21.7164 24.3698
641 2 21.4263 7.08049 7.17877
642 2 15.1221 2.90313 31.0586
643 2 24.7736 21.6825 5.16637
644 2 13.8288 24.4308 2.00411
645 2 10.0616 13.5091 29.9834
646 2 9.99659 17.2741 13.988
647 2 26.3377 13.5588 7.41705
648 2 27.2071 2.08695 17.8915
649 2 24.3026 4.58489 28.4882
650 2 26.3626 9.34706 24.1614
651 2 22.9636 5.05412 3.01789
652 2 15.3041 11.5025 6.74373
653 2 16.763 0.243986 13.5277
654 2 0.2236 23.807 31.4949
655 2 10.1574 13.2114 23.1444
656 2 21.7087 4.80845 10.9074
657 2 9.46248 1.08997 29.5095
658 3 20.6404 19.974 8.71432
659 2 25.7544 7.30464 28.0366
660 2 25.4584 7.61581 12.1214
661 2 10.2383 3.01822 10.357
662 2 7.48285 17.3461 22.2305
663 2 16.3187 0.581941 3.32157
664 2 20.4614 23.9939 25.817
665 2 20.0298 7.17863 11.5623
666 2 7.63417 11.6311 26.2014
667 2 9.96644 24.1802 17.5251
668 2 13.3064 15.5816 0.789217
669 2 14.2236 9.48305 11.1605
670 2 8.92284 20.0548 16.1412
671 2 23.9024 4.92928 6.13716
672 2 6.2518 1.11766 13.7726
673 2 0.847169 7.8401 14.8035
674 2 13.0072 5.01356 21.9868
675 2 27.1488 24.3211 9.33235
676 2 19.9997 6.4777 3.95867
677 2 20.203 2.58052 10.0593
678 2 5.46491 11.1956 4.14307
679 3 17.6082 11.4182 17.441
680 2 1.15722 2.72554 22.8105
681 2 21.6135 13.4119 27.0657
682 3 16.8534 15.5311 10.6307
683 3 13.254 15.3962 25.4857
684 3 27.2373 9.46537 5.26736
685 3 10.0802 19.9728 1.95818
686 2 3.94281 7.47693 3.53335
687 2 8.86332 17.7271 27.2598
688 2 16.619 0.361027 20.3741
689 2 10.7119 1.37646 24.5671
690 2 23.2672 17.9404 10.7799
691 2 7.50722 20.7771 7.10907
692 3 27.1873 0.402829 5.41295
693 2 13.7674 15.3276 9.01835
694 2 19.1879 15.3886 20.4762
695 2 2.55074 14.3044 10.8708
696 2 20.8623 13.0005 22.0789
697 2 21.5597 15.5059 15.3935
698 2 21.4472 4.94584 19.3674
699 3 16.9001 5.54323 13.7927
700 2 9.13193 22.5987 2.39544
701 2 13.004 2.83534 9.31437
702 2 19.7791 21.9017 12.9248
703 2 10.5758 19.7226 12.0579
704 2 11.2084 7.06567 27.9725
705 2 10.9976 15.2664 11.9505
706 2 11.3029 24.4631 4.30314
707 2 17.34 3.00815 12.5372
708 3 9.70261 7.2473 10.4204
709 2 26.3335 9.03576 5.45264
710 2 19.612 19.8094 9.05759
711 2 13.8572 15.8681 26.2217
712 2 19.5631 14.6243 29.0404
713 2 15.9834 15.6092 10.1962
714 2 18.2742 13.3272 14.0074
715 2 9.66399 20.9698 1.6039
716 2 10.067 7.49988 9.45007
717 2 16.9909 10.6437 17.8608
718 2 16.4974 4.56977 13.3701
719 2 26.4775 1.18137 5.06658
720 2 20.471 17.6623 13.6922
721 1 15.6982 0.336017 16.0297
722 1 15.2041 0.367308 24.7364
723 1 15.5438 5.31279 16.7308
724 1 15.0639 4.82402 24.4138
725 1 15.3628 8.98611 16.4814
726 1 15.6243 9.15529 25.019
727 1 22.4992 0.217554 16.6905
728 1 22.1452 0.419442 25.0865
729 1 22.4466 4.43313 16.8782
730 1 22.3525 4.39368 24.2904
731 1 22.3847 9.30495 16.1828
732 1 22.2748 8.82281 24.6129
733 1 19.0522 2.4043 22.7628
734 1 18.6329 2.89436 31.0161
735 1 18.6894 6.52429 23.1958
736 1 19.0398 7.07446 31.1816
737 1 18.7467 11.282 23.2244
738 1 18.8366 11.3595 31.0694
739 1 26.2419 2.78914 23.1127
740 1 25.6511 2.59953 30.7802
741 1 25.8048 7.20917 22.7785
742 1 26.0718 7.50383 30.7269
743 1 25.7049 11.4339 22.8819
744 1 25.8075 11.6349 30.6007
745 1 15.3261 2.66142 20.5182
746 1 14.8615 2.5222 28.3316
747 1 15.6889 6.89159 20.3023
748 1 14.9274 6.62617 28.444
749 1 14.9769 11.2721 20.6071
750 1 15.2118 11.1764 28.643
751 1 22.3637 2.97987 20.5136
752 1 22.1617 2.7914 29.0493
753 1 21.9577 7.12591 20.3715
754 1 22.8477 6.98217 28.3091
755 1 22.1747 11.0603 20.7358
756 1 22.1811 11.5082 28.6349
757 1 18.9171 0.176755 18.4433
758 1 18.6977 0.301221 27.0022
759 1 19.0322 4.42678 18.9341
760 1 18.8862 4.63998 26.9959
761 1 18.6137 9.24918 19.0107
762 1 18.8728 8.95024 27.1412
763 1 25.3323 0.799147 18.9239
764 1 26.0913 0.926699 26.9654
765 1 26.0099 4.72617 18.4841
766 1 26.2109 4.92619 26.5168
767 1 25.9413 9.13941 18.3657
768 1 25.7379 9.90597 27.0517
769 3 16.3052 21.3297 27.285
770 2 10.0491 9.48037 29.7503
771 2 12.337 19.693 4.4439
772 2 24.6997 19.591 12.186
773 3 24.033 22.1083 21.4938
774 3 24.1787 24.0121 17.6607
775 2 2.11823 24.3955 6.93618
776 2 8.67527 21.9398 19.1539
777 2 13.2933 1.28328 15.1942
778 2 20.8438 9.44691 5.25653
779 2 17.3309 4.86501 -0.197795
780 2 20.0891 3.04963 1.03272
781 2 15.0646 24.3983 31.2882
782 2 13.7871 11.6957 8.93801
783 2 2.62449 18.2193 5.03505
784 2 23.708 19.6938 6.50881
785 2 26.2558 17.6608 16.2695
786 2 15.8841 13.4062 2.76023
787 2 26.8161 13.9687 16.7187
788 2 6.29705 9.27264 29.3063
789 2 -0.274559 5.06749 13.7551
790 2 21.6895 2.1088 23.1417
791 2 21.7063 0.596585 27.5804
792 2 16.119 21.8016 3.25181
793 2 16.7255 19.612 11.0928
794 2 19.9792 17.8612 30.8424
795 2 20.5013 21.7656 22.4591
796 2 5.87484 5.2578 16.0687
797 2 26.2287 21.4753 15.8068
798 2 25.3483 4.75947 15.9388
799 2 18.5248 9.34754 8.34582
800 2 23.2804 10.9459 23.3047
801 2 17.7915 0.444565 8.90474
802 3 13.6761 3.08991 2.25502
803 2 8.0498 24.2659 14.6542
804 2 6.87882 7.63119 18.2665
805 2 9.21172 16.0003 1.90578
806 2 9.38181 11.4932 1.61393
807 2 27.2502 22.7022 12.6168
808 2 14.401 20.016 31.5852
809 2 13.7252 20.0944 1.74631
810 2 13.3981 21.588 21.582
811 2 8.54047 11.5704 6.53407
812 2 14.2385 20.0369 15.2763
813 2 0.711097 15.7149 14.7167
814 2 21.2648 21.2456 26.3455
815 2 5.36558 24.3353 12.046
816 2 9.92526 24.1151 31.0517
817 2 27.4762 0.375022 19.8695
818 2 24.299 13.139 21.5076
819 2 23.492 15.3149 25.7752
820 2 7.68622 6.70466 15.1648
821 2 3.12069 1.67278 1.0505
822 2 18.6322 11.1141 1.1656
823 3 0.50176 15.556 30.8767
824 2 20.0271 0.718885 30.8183
825 2 9.16721 7.77442 6.9172
826 3 3.31366 2.87215 17.5403
827 3 25.2307 12.1135 28.0153
828 3 24.3158 9.21916 14.661
829 3 17.0813 18.039 5.23322
830 2 17.3284 15.446 26.0993
831 2 23.233 25.3498 30.2831
832 2 3.08134 9.39982 5.61295
833 2 14.198 23.7085 15.2215
834 2 15.9687 13.2462 27.337
835 2 3.72868 13.8395 8.07333
836 3 20.4774 11.0523 25.4557
837 2 19.7696 19.5566 28.38
838 2 0.68013 7.0439 22.5503
839 2 27.0358 13.0783 12.8596
840 2 5.74402 23.5366 20.0701
841 2 18.4451 23.8379 4.48525
842 2 9.85024 7.03325 0.396328
843 3 16.9536 7.38675 18.0518
844 2 17.9425 18.176 8.36851
845 2 3.62803 24.2337 28.6004
846 2 14.8547 24.2736 7.15457
847 2 25.1347 11.025 12.2365
848 2 26.0833 24.4064 28.0167
849 2 -0.227519 19.1644 -0.320269
850 2 25.3749 13.8398 -0.448407
851 2 10.3308 11.2555 25.2064
852 3 27.2988 15.7478 25.4403
853 2 24.8605 9.44961 13.7967
854 2 13.0881 3.33465 1.3242
855 2 25.002 13.0156 28.629
856 2 25.1146 23.6658 17.3751
857 2 2.9441 2.01027 17.0827
858 2 25.0557 21.8172 21.4875
859 2 16.9327 17.9895 6.29342
860 2 26.9858 16.6972 25.1481
861 2 0.0190406 14.5747 30.744
862 2 17.6195 7.23287 17.3228
863 2 20.7079 11.4926 26.3347
864 2 16.5772 20.3402 26.8859
865 1 14.8541 13.5746 -0.187999
866 1 15.9143 13.4791 8.74982
867 1 15.0373 17.7095 0.221312
868 1 15.364 17.7894 8.69117
869 1 15.1591 22.1572 0.477294
870 1 15.4054 22.2299 8.70521
871 1 22.7344 13.3965 0.242323
872 1 22.2628 13.59 8.20301
873 1 22.0452 18.1965 0.355996
874 1 22.5407 18.0302 8.10726
875 1 22.2701 22.416 -0.187108
876 1 21.9746 21.8613 7.95535
877 1 18.7293 16.0318 6.63235
878 1 18.9436 15.96 15.3807
879 1 18.923 20.2164 6.52867
880 1 18.7221 19.891 14.6537
881 1 18.7041 24.2408 7.00183
882 1 18.7685 23.7836 15.1649
883 1 25.7221 16.0524 6.51016
884 1 26.0953 15.2274 14.7468
885 1 26.169 20.2391 6.63466
886 1 25.6244 19.3588 14.8226
887 1 25.7656 24.2131 6.64953
888 1 25.3984 23.7452 14.6059
889 1 15.5926 15.5968 4.70255
890 1 15.7121 15.4372 12.9245
891 1 15.09 19.401 4.16652
892 1 15.2467 19.8711 12.9125
893 1 15.4992 23.906 4.41647
894 1 14.8753 24.1532 12.7198
895 1 22.2155 15.582 3.93842
896 1 22.3322 15.7838 12.1633
897 1 22.3581 19.9749 4.31614
898 1 22.1654 19.5866 12.3336
899 1 22.1543 24.2478 4.57123
900 1 21.7978 23.8141 11.9575
901 1 18.8794 13.2133 2.36813
902 1 18.56 13.5927 10.8603
903 1 18.6158 17.5182 2.9182
904 1 18.8957 17.7845 10.6613
905 1 18.7329 22.2996 2.61273
906 1 18.1883 22.3973 11.0166
907 1 25.9234 13.4443 2.38349
908 1 25.5025 13.6767 10.489
909 1 25.7345 17.8356 2.2773
910 1 26.1508 18.0184 10.889
911 1 25.8721 22.2282 2.56398
912 1 25.6111 21.7024 10.5228
913 3 13.7588 13.5188 29.9883
914 2 23.4715 6.60724 31.2681
915 2 3.59281 15.1764 4.43524
916 2 3.14667 15.8054 25.3622
917 3 20.368 23.9854 1.56373
918 3 24.257 12.9441 4.25481
919 2 5.53333 3.14355 20.8836
920 2 0.0688653 23.1445 22.3324
921 2 0.8065 0.321287 27.0565
922 2 4.94358 3.2855 4.5758
923 2 16.8854 17.594 21.3825
924 2 5.78344 16.0142 12.4444
925 2 21.5818 13.1629 19.1409
926 2 3.01682 22.127 21.48
927 2 27.3552 0.312136 12.6595
928 2 5.62821 4.89192 29.7022
929 2 19.2863 6.87481 20.3059
930 2 13.0897 0.47091 29.2479
931 2 6.38495 2.79363 25.7061
932 2 11.9586 11.4468 28.0267
933 2 13.5284 19.3838 10.4546
934 2 8.03872 0.359336 19.0266
935 2 8.54121 9.35423 27.0391
936 2 15.3542 22.1445 11.2658
937 2 27.5067 6.62032 17.2825
938 2 25.3322 2.73635 12.244
939 2 19.0483 24.4668 20.5197
940 2 3.08129 20.2254 1.12874
941 2 20.3293 17.4825 21.8968
942 2 24.1094 19.4983 17.9483
943 2 13.0914 9.31704 21.5403
944 2 -0.23795 16.4911 1.33913
945 2 0.740582 4.90899 11.1034
946 3 13.4086 13.8414 4.9552
947 2 16.7128 7.07824 9.98163
948 2 23.7072 17.1828 21.5665
949 2 15.4364 7.16541 23.0667
950 2 11.2957 14.94 20.2368
951 2 23.2567 2.66177 31.269
952 2 9.68553 23.7944 10.5842
953 2 13.7209 15.6386 18.4553
954 2 17.485 0.375347 6.0937
955 2 16.3339 5.29094 3.19209
956 2 17.0282 9.57127 5.45618
957 2 19.5547 2.21608 28.5678
958 2 11.7633 19.4693 28.2555
959 2 16.8113 22.6746 6.54642
960 2 6.79802 13.8469 29.7889
961 2 3.32185 9.32828 21.5157
962 2 0.207938 22.0255 18.7315
963 2 8.0622 11.4444 30.945
964 2 11.8971 22.4366 16.7902
965 2 24.1908 2.85166 18.7203
966 2 22.6582 11.3911 6.93389
967 3 17.1065 11.2706 10.3446
968 2 18.9404 11.1172 3.91711
969 2 1.53264 20.8067 6.74008
970 3 6.32973 22.4507 4.98956
971 3 20.6862 21.9034 5.21176
972 3 2.69985 0.451408 14.4162
973 3 16.7367 4.27603 22.4462
974 2 2.48475 11.3581 23.0312
975 2 9.13741 0.519471 26.6832
976 2 22.0946 13.2959 10.9291
977 2 22.5267 6.4936 22.758
978 2 2.04199 17.8477 27.4054
979 2 24.4187 24.2448 12.2327
980 3 7.33362 17.8434 13.7579
981 2 19.9491 19.456 1.88866
982 2 19.2726 4.32305 24.5434
983 2 14.5973 0.179965 18.408
984 2 22.5895 9.12507 3.01561
985 2 13.3416 19.3599 25.5551
986 2 6.70321 24.6083 17.4516
987 3 17.0127 17.832 14.3443
988 2 12.7563 9.11844 16.473
989 2 14.9223 4.6395 10.9267
990 2 17.5159 16.2096 1.14191
991 2 10.3075 15.5184 9.41569
992 2 11.9671 24.4236 12.2442
993 2 26.401 6.946 19.9428
994 2 5.59506 19.655 8.83899
995 2 8.77059 0.954649 2.93893
996 3 -0.372339 20.3386 9.22966
997 2 3.34039 0.845535 13.7239
998 2 13.7714 13.5155 5.90975
999 2 19.9776 22.6806 4.89015
1000 2 23.9812 13.7908 4.86509
1001 2 6.92207 21.9162 5.7049
1002 2 19.5442 23.977 0.981694
1003 2 17.3591 4.64551 21.6871
1004 2 0.00849844 19.9825 10.0692
1005 2 17.4761 11.2771 9.39948
1006 2 17.4129 17.4982 13.3955
1007 2 6.59341 17.3621 13.2532
1008 2 13.2862 13.6725 29.0624
1009 1 15.6559 13.2138 16.4569
1010 1 15.3572 13.5682 24.6775
1011 1 15.335 17.4182 16.46
1012 1 15.2643 17.2869 24.5303
1013 1 15.3646 22.006 16.4216
1014 1 15.3075 21.9612 25.0392
1015 1 22.606 13.4414 16.6664
1016 1 22.2679 13.1366 24.5078
1017 1 22.728 17.5692 16.6523
1018 1 21.8713 17.5306 24.0453
1019 1 22.5883 22.2739 16.2814
1020 1 22.8423 22.0094 24.5167
1021 1 18.8026 15.2666 22.9246
1022 1 18.9863 15.7623 31.0868
1023 1 18.32 19.9541 22.3694
1024 1 18.7722 20.2134 30.6237
1025 1 18.7339 23.8858 22.9509
1026 1 18.4531 24.5793 31.216
1027 1 25.5813 15.5129 23.061
1028 1 25.9778 16.3175 30.9976
1029 1 25.8264 19.8385 23.1088
1030 1 25.7275 20.1906 30.9304
1031 1 25.7969 24.1848 22.7614
1032 1 25.8074 24.5893 30.5211
1033 1 14.7545 15.3345 20.6301
1034 1 15.8474 15.1458 28.7546
1035 1 15.2741 19.8503 20.2017
1036 1 14.8056 19.7932 28.8556
1037 1 15.1107 23.9015 20.5335
1038 1 15.4992 23.7333 28.2788
1039 1 21.931 15.3468 20.1583
1040 1 22.0924 16.0539 28.235
1041 1 22.4035 19.6342 20.7753
1042 1 22.1076 20.2595 28.5096
1043 1 22.1929 23.885 20.5734
1044 1 22.2771 23.9957 28.187
1045 1 18.9316 13.2808 18.9159
1046 1 18.6265 13.1374 26.9692
1047 1 18.7747 17.4607 19.1038
1048 1 18.6678 17.2566 26.7945
1049 1 18.9848 21.9146 18.8952
1050 1 18.885 21.9295 27.008
1051 1 25.7132 13.288 19.1735
1052 1 25.7079 14.1652 26.6439
1053 1 25.6 17.5465 19.0537
1054 1 25.6365 17.9423 26.6833
1055 1 25.4357 21.8445 18.9516
1056 1 26.1252 22.2701 26.8945
1057 3 2.80359 11.3231 2.14814
1058 2 18.1728 22.0241 8.34554
1059 2 23.396 0.901758 5.56873
1060 2 2.21932 4.54753 3.01089
1061 3 -0.0814101 7.07385 2.05947
1062 3 1.43323 22.167 26.9247
1063 2 23.0678 0.474844 11.2292
1064 2 12.8869 7.35912 11.7201
1065 2 24.6604 1.03582 29.0311
1066 2 24.1327 20.4796 26.5148
1067 2 24.4615 18.1775 28.9416
1068 2 16.7712 24.1587 9.96908
1069 2 27.0964 18.2512 5.10881
1070 2 20.5879 15.3382 17.8964
1071 2 4.01589 4.85357 8.15623
1072 2 -0.365679 2.01837 9.86718
1073 2 27.2146 9.54086 29.3634
1074 2 9.85061 21.7874 29.9143
1075 2 25.3119 0.358437 15.7956
1076 2 21.3244 13.8415 5.99206
1077 2 10.864 11.5383 3.84283
1078 2 10.3664 2.52151 4.33993
1079 2 7.96159 9.42025 19.4218
1080 2 19.9814 17.9263 16.5164
1081 2 24.1063 4.89709 12.8491
1082 2 14.1778 0.57289 11.6568
1083 2 0.357869 13.3269 27.4128
1084 2 14.5954 19.9443 7.56983
1085 2 17.5559 13.1486 23.4858
1086 2 12.0146 2.90156 12.4087
1087 2 20.9646 10.9758 1.05332
1088 2 2.89495 2.81139 9.72297
1089 2 14.6427 10.9936 14.7622
1090 3 9.56229 9.01433 22.1401
1091 2 9.68382 18.1263 5.83487
1092 2 26.5226 0.996613 0.273731
1093 2 0.525164 13.6021 18.5955
1094 2 12.1278 24.393 20.7019
1095 2 10.2618 21.5969 5.61146
1096 2 2.93973 13.6044 20.7904
1097 2 20.0105 1.54909 13.2764
1098 2 4.11758 17.9108 7.8351
1099 2 5.69666 15.4901 20.752
1100 2 10.8746 7.01808 3.89574
1101 2 8.04119 21.3914 10.9757
1102 2 9.53539 18.0539 30.5855
1103 2 15.9838 3.19807 6.70119
1104 2 20.6194 17.7509 5.56836
1105 2 24.9809 2.92235 4.14272
1106 2 13.4502 11.8474 1.77065
1107 2 14.2104 17.2263 3.08197
1108 2 24.0536 9.72593 30.1379
1109 2 0.815134 2.91828 31.1049
1110 2 9.73007 13.5605 14.5765
1111 3 10.4594 20.1808 9.13546
1112 2 10.1788 17.6445 22.7017
1113 2 18.4201 17.8805 24.4001
1114 3 24.0936 15.5253 18.1466
1115 3 24.1247 7.15584 9.20731
1116 3 17.0795 21.6295 20.8799
1117 3 20.7044 6.95277 0.951484
1118 2 10.7921 4.43721 24.725
1119 2 17.1122 8.74102 21.2875
1120 2 0.370488 9.48529 11.1948
1121 2 20.7459 11.5877 16.1729
1122 2 5.37681 13.3303 24.5513
1123 2 12.9268 8.60035 29.3677
1124 3 17.0564 21.8983 14.0761
1125 2 10.0909 11.1418 9.55196
1126 2 25.065 7.32654 4.57103
1127 2 13.2139 17.252 22.6253
1128 2 7.56443 13.6472 11.4355
1129 2 24.4945 24.4451 0.914802
1130 2 6.15147 2.11834 16.987
1131 3 17.4151 23.7504 17.307
1132 2 6.35976 23.7168 9.14792
1133 2 -0.0215303 22.5277 6.03877
1134 2 11.0107 9.67857 8.04299
1135 2 15.9114 15.8252 7.13183
1136 2 7.35226 23.7419 23.2317
1137 2 3.33928 11.6173 26.3516
1138 2 19.1932 24.2654 12.4816
1139 2 21.4368 9.06982 18.986
1140 3 3.21938 14.0042 29.4488
1141 2 16.3376 21.4351 21.5211
1142 2 10.0232 9.27029 21.1928
1143 2 24.1656 7.64336 10.1649
1144 2 2.03218 22.9738 26.718
1145 2 24.4617 15.6307 17.0579
1146 2 -0.739796 7.00142 1.18506
1147 2 21.3576 6.74909 1.67327
1148 2 2.62856 14.1966 30.2964
1149 2 9.70824 19.6677 9.62389
1150 2 16.8255 24.2181 17.9715
1151 2 17.4022 22.6615 13.5429
1152 2 3.21786 11.3263 1.14141
