# LAMMPS data file
758 atoms
3 atom types
0.0 32.39794198551478 xlo xhi
0.0 23.64774 ylo yhi
0.0 77.32469402918946 zlo zhi

Atoms # atomic

1 1 5.45428 4.08007 29.19637
2 1 9.33398 5.85267 27.75807
3 1 10.85396 1.91139 29.19637
4 1 3.93432 8.02136 27.75807
5 2 6.46494 6.38929 27.96437
6 2 8.32332 3.54345 28.99007
7 2 1.06528 7.48474 27.96437
8 2 2.92366 2.44800 28.99007
9 2 8.83093 8.34312 28.37127
10 2 5.95733 1.58963 28.58317
11 2 3.43127 5.53091 28.37127
12 2 0.55768 4.40183 28.58317
13 1 8.68191 4.08007 31.84407
14 1 1.76229 5.85267 30.40577
15 1 3.28225 1.91139 31.84407
16 1 7.16195 8.02136 30.40577
17 2 9.69257 6.38929 30.61207
18 2 0.75163 3.54345 31.63777
19 2 4.29291 7.48474 30.61207
20 2 6.15129 2.44800 31.63777
21 2 1.25924 8.34312 31.01907
22 2 9.18496 1.58963 31.23087
23 2 6.65890 5.53091 31.01907
24 2 3.78530 4.40183 31.23087
25 1 1.19463 4.21112 34.56067
26 1 5.15429 5.96800 32.95127
27 1 6.43827 1.87975 34.53207
28 1 10.46296 8.20740 33.21547
29 2 2.37200 6.24261 33.14857
30 2 4.22497 3.61302 34.11737
31 2 6.77013 4.40933 33.79927
32 2 9.21542 2.76731 34.12507
33 2 7.67420 7.39559 33.22137
34 2 1.31583 1.59261 34.27227
35 2 10.10215 5.62311 33.78887
36 2 4.37247 8.23395 33.76437
37 1 4.27889 4.08558 37.04627
38 1 7.96831 5.75790 35.72917
39 1 9.67680 1.98513 36.97147
40 1 2.83827 7.89484 35.68467
41 2 5.68917 5.54887 38.88307
42 2 7.26173 3.53281 37.11467
43 2 7.64011 8.18047 36.36507
44 2 1.74970 2.47046 36.75227
45 2 5.32884 6.61540 35.84797
46 2 4.54535 1.73359 36.33107
47 2 1.87507 5.69874 36.48387
48 2 10.17192 4.63257 36.42947
49 1 7.53175 4.11678 39.99327
50 1 0.61071 5.82824 38.56857
51 1 2.29490 1.82998 39.76337
52 1 5.94043 8.31004 38.40057
53 2 8.69980 6.54646 38.64087
54 2 8.43389 2.40453 42.56107
55 2 32.59126 8.32343 39.17027
56 2 3.62497 23.52028 38.36527
57 2 11.11066 7.32769 36.30387
58 2 8.50421 1.83761 39.73017
59 2 6.17636 7.60942 40.79017
60 2 15.24376 5.85952 43.47667
61 1 10.79676 4.46047 42.83187
62 1 3.77781 5.72571 41.12107
63 1 5.57248 1.92553 42.50177
64 1 8.88450 7.99621 41.17147
65 2 11.19606 1.98513 42.30207
66 2 3.17984 8.27164 41.50167
67 2 11.69846 9.97226 45.21407
68 2 31.27166 23.51878 43.72517
69 2 9.94473 7.73378 43.78497
70 2 2.91479 3.41195 42.37927
71 2 13.67656 4.43759 38.99187
72 2 3.04863 4.42630 38.90947
73 1 3.31228 3.74049 44.97137
74 1 7.06138 5.45057 44.31607
75 1 8.97565 1.82918 44.93657
76 1 1.71143 7.83829 43.69987
77 2 4.86323 2.82414 39.99977
78 2 10.08042 3.89284 40.28957
79 2 8.37616 10.25582 42.67137
80 2 1.15997 2.26317 45.14487
81 2 6.22804 15.60558 40.97557
82 2 17.75136 24.26198 44.78307
83 2 3.86515 17.22898 44.69457
84 2 9.13390 4.32364 45.01437
85 1 5.45428 11.96268 29.19637
86 1 9.33398 13.73528 27.75807
87 1 10.85396 9.79396 29.19637
88 1 3.93432 15.90398 27.75807
89 2 6.46494 14.27188 27.96437
90 2 8.32332 11.42608 28.99007
91 2 1.06528 15.36728 27.96437
92 2 2.92366 10.33058 28.99007
93 2 8.83093 16.22568 28.37127
94 2 5.95733 9.47220 28.58317
95 2 3.43127 13.41348 28.37127
96 2 0.55768 12.28438 28.58317
97 1 8.68191 11.96268 31.84407
98 1 1.76229 13.73528 30.40577
99 1 3.28225 9.79396 31.84407
100 1 7.16195 15.90398 30.40577
101 2 9.69257 14.27188 30.61207
102 2 0.75163 11.42608 31.63777
103 2 4.29291 15.36728 30.61207
104 2 6.15129 10.33058 31.63777
105 2 1.25924 16.22568 31.01907
106 2 9.18496 9.47220 31.23087
107 2 6.65890 13.41348 31.01907
108 2 3.78530 12.28438 31.23087
109 1 1.14356 11.97128 34.53687
110 1 4.83761 13.67768 33.20377
111 1 6.57004 9.69618 34.38187
112 1 10.60326 16.08278 32.96227
113 2 2.07300 14.03328 33.26337
114 2 3.85398 11.34328 34.07337
115 2 7.79600 15.46258 33.61347
116 2 9.61374 10.23835 34.55057
117 2 4.24347 16.35918 33.68567
118 2 1.52998 9.52414 34.13887
119 2 9.78871 13.59648 33.35907
120 2 7.17337 12.28498 33.79947
121 1 4.47003 11.94328 36.97357
122 1 8.40765 13.98478 35.83247
123 1 9.60767 9.73752 37.00627
124 1 2.73955 16.06108 35.58587
125 2 5.71396 14.38178 35.63287
126 2 4.57899 9.50805 36.30967
127 2 13.89416 15.49558 38.32317
128 2 1.91595 10.34159 37.24027
129 2 7.62139 16.36668 36.59947
130 2 3.27226 7.68956 38.84537
131 2 2.29214 13.48398 36.15367
132 2 10.10512 12.16038 36.55817
133 1 7.83227 12.10908 39.69967
134 1 0.84343 13.87298 38.61037
135 1 2.23828 9.65201 39.75547
136 1 5.84967 16.14818 38.41017
137 2 5.31512 13.31688 38.71397
138 2 14.37796 9.17024 45.20297
139 2 3.27010 15.20598 38.52027
140 2 6.68999 8.21257 44.58407
141 2 10.97056 16.10908 39.09837
142 2 5.20993 10.44493 39.40247
143 2 7.28357 11.70728 36.95857
144 2 32.16616 11.42798 39.75427
145 1 11.16526 12.03508 42.58577
146 1 3.95709 13.49238 40.86477
147 1 5.42644 9.66728 42.74647
148 1 9.00071 16.10188 41.12847
149 2 30.50636 13.43618 42.19827
150 2 11.12106 9.36313 41.67047
151 2 8.79288 13.71628 41.46667
152 2 6.22496 12.14978 41.83817
153 2 4.99771 18.77728 39.70547
154 2 25.74386 5.95639 43.87327
155 2 0.83502 17.99628 44.88577
156 2 1.56652 13.21798 44.61307
157 1 3.43900 11.70068 45.44987
158 1 7.36715 13.57158 43.60427
159 1 8.91272 9.64900 45.16667
160 1 1.88086 15.59398 43.64017
161 2 3.14698 15.95818 41.32757
162 2 3.91541 9.48183 44.93197
163 2 21.71976 17.02518 42.56947
164 2 5.33477 21.44938 39.34867
165 2 13.61766 10.93183 42.22847
166 2 4.46077 13.73658 43.79267
167 2 8.49550 5.52767 42.22297
168 1 5.45428 19.84518 29.19637
169 1 9.33398 21.61788 27.75807
170 1 10.85396 17.67658 29.19637
171 1 3.93432 23.78648 27.75807
172 2 6.46494 22.15448 27.96437
173 2 8.32332 19.30858 28.99007
174 2 1.06528 23.24988 27.96437
175 2 2.92366 18.21318 28.99007
176 2 8.83093 24.10828 28.37127
177 2 5.95733 17.35478 28.58317
178 2 3.43127 21.29608 28.37127
179 2 0.55768 20.16698 28.58317
180 1 8.68191 19.84518 31.84407
181 1 1.76229 21.61788 30.40577
182 1 3.28225 17.67658 31.84407
183 1 7.16195 23.78648 30.40577
184 2 9.69257 22.15448 30.61207
185 2 0.75163 19.30858 31.63777
186 2 4.29291 23.24988 30.61207
187 2 6.15129 18.21318 31.63777
188 2 1.25924 24.10828 31.01907
189 2 9.18496 17.35478 31.23087
190 2 6.65890 21.29608 31.01907
191 2 3.78530 20.16698 31.23087
192 1 1.04345 19.96708 34.56847
193 1 5.07833 21.64538 33.24007
194 1 6.34854 17.52198 34.46257
195 1 10.18766 23.83608 32.94427
196 2 2.39330 22.14068 33.09837
197 2 3.80266 19.52158 34.34967
198 2 7.12835 23.60468 33.09567
199 2 9.16361 18.49568 34.32017
200 2 4.29688 24.30158 33.87037
201 2 1.45393 17.41538 33.64087
202 2 9.54035 21.71618 33.72807
203 2 7.04791 20.01658 34.08207
204 1 4.48286 19.91278 37.34957
205 1 8.08364 21.51978 36.07957
206 1 9.61153 17.80158 37.08107
207 1 2.72530 23.67398 35.69857
208 2 5.70703 22.13638 36.81757
209 2 7.21806 19.33658 37.12487
210 2 10.54426 23.51578 35.75457
211 2 1.30490 18.16248 37.18677
212 2 7.48444 24.20048 36.43477
213 2 4.48700 17.37108 36.80687
214 2 2.73001 21.15728 36.01177
215 2 10.25162 20.36248 36.47207
216 1 7.34861 20.20518 40.00457
217 1 0.54835 21.44118 38.34957
218 1 1.73602 17.75088 39.78267
219 1 6.04905 23.98278 38.61127
220 2 17.69456 19.35768 46.14957
221 2 16.16016 18.09878 40.09167
222 2 30.80826 20.02388 44.71107
223 2 0.84028 1.46962 42.02927
224 2 3.58111 24.25438 41.58427
225 2 6.87067 15.96708 43.94097
226 2 9.80149 23.20808 43.77207
227 2 32.06836 16.15668 39.05197
228 1 10.86686 20.07068 43.00547
229 1 3.77678 21.45638 41.22977
230 1 5.32004 17.67168 42.39047
231 1 9.39926 23.85078 41.27667
232 2 5.79860 4.53410 42.04217
233 2 28.07176 19.28968 45.22747
234 2 8.41488 22.21578 38.59007
235 2 3.46131 11.26988 42.72867
236 2 9.10704 20.12178 44.52947
237 2 22.42026 18.43688 45.42727
238 2 11.11176 17.93828 45.09347
239 2 1.07204 22.11558 41.38427
240 1 3.30764 19.38998 45.35067
241 1 7.19113 21.67298 43.84197
242 1 8.46504 17.68628 45.04327
243 1 2.04295 23.63468 43.83817
244 2 2.85842 19.15078 42.46217
245 2 30.78206 4.29950 44.65687
246 2 1.64916 20.74628 44.17417
247 2 15.52966 12.58888 44.36487
248 2 1.32578 5.30635 44.33007
249 2 28.58696 16.00348 44.17907
250 2 31.26516 15.21308 44.09767
251 2 2.68705 20.48178 39.16877
252 1 16.25356 4.08007 29.19637
253 1 20.13326 5.85267 27.75807
254 1 21.65326 1.91139 29.19637
255 1 14.73366 8.02136 27.75807
256 2 17.26426 6.38929 27.96437
257 2 19.12266 3.54345 28.99007
258 2 11.86456 7.48474 27.96437
259 2 13.72296 2.44800 28.99007
260 2 19.63026 8.34312 28.37127
261 2 16.75666 1.58963 28.58317
262 2 14.23056 5.53091 28.37127
263 2 11.35696 4.40183 28.58317
264 1 19.48126 4.08007 31.84407
265 1 12.56156 5.85267 30.40577
266 1 14.08156 1.91139 31.84407
267 1 17.96126 8.02136 30.40577
268 2 20.49186 6.38929 30.61207
269 2 11.55096 3.54345 31.63777
270 2 15.09226 7.48474 30.61207
271 2 16.95056 2.44800 31.63777
272 2 12.05856 8.34312 31.01907
273 2 19.98426 1.58963 31.23087
274 2 17.45816 5.53091 31.01907
275 2 14.58466 4.40183 31.23087
276 1 11.89106 4.14900 34.48977
277 1 15.64016 5.62758 33.03507
278 1 17.32636 1.83124 34.65937
279 1 21.10856 8.13587 33.13667
280 2 12.88596 6.68387 33.31857
281 2 14.36196 3.23065 34.22827
282 2 18.54946 7.60285 33.58347
283 2 19.96946 2.41649 33.87597
284 2 15.37586 8.28090 33.74277
285 2 12.31546 1.53820 34.09507
286 2 20.65726 5.55843 33.84617
287 2 17.80326 4.13586 34.13087
288 1 15.14566 4.22894 36.88077
289 1 18.79916 6.19993 35.82827
290 1 20.47396 1.84322 36.97167
291 1 13.63346 8.13731 35.83777
292 2 16.01076 6.57742 35.79127
293 2 17.74116 3.87345 37.04727
294 2 21.40516 7.48153 36.00647
295 2 11.77856 21.64508 45.14347
296 2 18.39976 8.80216 36.73437
297 2 12.23406 2.26373 36.99887
298 2 13.02716 5.53518 36.23497
299 2 20.83496 4.56698 36.45217
300 1 18.31526 4.10857 39.91197
301 1 11.52656 5.52967 38.40997
302 1 13.08316 1.97798 40.12147
303 1 16.78846 8.27298 38.56187
304 2 19.13026 6.53060 38.74887
305 2 28.21596 8.45022 44.78067
306 2 13.99526 7.17974 38.53707
307 2 13.81796 23.50278 38.73717
308 2 22.51446 9.47468 41.84817
309 2 18.93906 1.79049 39.14747
310 2 16.40596 5.61012 38.82327
311 2 12.40496 6.75985 41.23147
312 1 21.65806 4.37531 42.61117
313 1 14.98786 5.95916 40.91067
314 1 16.41476 2.13038 42.80637
315 1 20.33816 8.30453 40.83297
316 2 15.13476 21.99678 44.37327
317 2 18.80646 3.00327 42.56717
318 2 12.38156 5.85742 45.16907
319 2 16.71906 4.28958 41.76087
320 2 14.11916 8.37855 41.62467
321 2 7.01968 24.13488 44.08457
322 2 21.01396 11.11088 39.88127
323 2 19.79726 21.34348 41.62317
324 1 14.16036 4.01144 44.83517
325 1 18.00776 5.98452 43.63807
326 1 19.62596 2.16845 44.86477
327 1 12.78556 7.86482 43.78747
328 2 15.96756 2.46465 39.83917
329 2 13.93436 24.16748 41.86847
330 2 17.34046 7.81856 41.07717
331 2 11.60376 2.31603 44.80097
332 2 10.52446 10.99655 39.84157
333 2 9.61650 15.27998 43.74517
334 2 9.42106 12.16468 44.90587
335 2 13.57316 3.99691 42.08607
336 1 16.25356 11.96268 29.19637
337 1 20.13326 13.73528 27.75807
338 1 21.65326 9.79396 29.19637
339 1 14.73366 15.90398 27.75807
340 2 17.26426 14.27188 27.96437
341 2 19.12266 11.42608 28.99007
342 2 11.86456 15.36728 27.96437
343 2 13.72296 10.33058 28.99007
344 2 19.63026 16.22568 28.37127
345 2 16.75666 9.47220 28.58317
346 2 14.23056 13.41348 28.37127
347 2 11.35696 12.28438 28.58317
348 1 19.48126 11.96268 31.84407
349 1 12.56156 13.73528 30.40577
350 1 14.08156 9.79396 31.84407
351 1 17.96126 15.90398 30.40577
352 2 20.49186 14.27188 30.61207
353 2 11.55096 11.42608 31.63777
354 2 15.09226 15.36728 30.61207
355 2 16.95056 10.33058 31.63777
356 2 12.05856 16.22568 31.01907
357 2 19.98426 9.47220 31.23087
358 2 17.45816 13.41348 31.01907
359 2 14.58466 12.28438 31.23087
360 1 11.94036 12.02628 34.60147
361 1 15.84216 13.76378 33.24907
362 1 17.18786 9.73558 34.49487
363 1 21.21906 15.87718 33.13027
364 2 13.02296 14.51148 33.41457
365 2 15.16286 11.53658 34.05707
366 2 18.33296 15.69818 33.44347
367 2 19.88966 10.34000 34.47297
368 2 15.40236 16.37338 33.86837
369 2 12.54176 9.77832 33.69817
370 2 20.89356 13.62498 33.94647
371 2 17.87226 12.62268 34.21557
372 1 15.07296 12.36178 37.53727
373 1 18.98356 13.68438 36.09117
374 1 20.49826 9.97959 37.04547
375 1 13.67906 16.08528 35.76897
376 2 16.18956 14.43558 36.24137
377 2 15.50346 10.22401 39.63997
378 2 21.70706 15.72348 35.92677
379 2 12.60846 10.28083 36.70067
380 2 19.46806 14.39498 38.86627
381 2 15.52006 9.32624 36.57377
382 2 10.73516 15.30248 36.16087
383 2 18.74366 9.63201 39.13757
384 1 18.41376 11.78148 40.03757
385 1 11.43776 13.81098 38.43677
386 1 12.95616 9.64242 39.81587
387 1 16.62606 16.10588 38.51697
388 2 16.30996 13.46698 39.57257
389 2 18.08536 11.81308 37.38637
390 2 13.24636 13.35328 36.37507
391 2 22.78236 6.28365 41.26807
392 2 21.27486 12.32358 36.41587
393 2 20.62826 7.66063 43.50867
394 2 13.44366 12.42308 39.71167
395 2 14.03016 19.66238 42.99827
396 1 21.89206 12.21718 42.90057
397 1 14.72906 13.47568 41.81487
398 1 16.32486 9.68152 42.58477
399 1 19.90586 15.92768 41.35307
400 2 11.96336 14.43578 41.27517
401 2 6.19378 19.41198 45.36847
402 2 23.56336 10.24814 37.28397
403 2 22.46376 10.24642 44.56697
404 2 26.18186 22.06908 43.97417
405 2 10.71236 24.29818 38.84477
406 2 10.07163 19.36948 39.58407
407 2 6.21306 11.44008 44.58887
408 1 14.01366 11.58898 45.69117
409 1 18.01606 13.48838 44.37607
410 1 19.81216 9.75460 44.86447
411 1 12.39106 15.93668 43.79317
412 2 19.33216 10.24614 42.51657
413 2 16.78806 20.21088 41.88447
414 2 17.82996 8.16350 44.59537
415 2 23.22666 21.27038 43.94347
416 2 16.91266 15.17938 42.32757
417 2 7.99404 9.43144 39.12107
418 2 11.22106 17.57648 41.86487
419 1 16.25356 19.84518 29.19637
420 1 20.13326 21.61788 27.75807
421 1 21.65326 17.67658 29.19637
422 1 14.73366 23.78648 27.75807
423 2 17.26426 22.15448 27.96437
424 2 19.12266 19.30858 28.99007
425 2 11.86456 23.24988 27.96437
426 2 13.72296 18.21318 28.99007
427 2 19.63026 24.10828 28.37127
428 2 16.75666 17.35478 28.58317
429 2 14.23056 21.29608 28.37127
430 2 11.35696 20.16698 28.58317
431 1 19.48126 19.84518 31.84407
432 1 12.56156 21.61788 30.40577
433 1 14.08156 17.67658 31.84407
434 1 17.96126 23.78648 30.40577
435 2 20.49186 22.15448 30.61207
436 2 11.55096 19.30858 31.63777
437 2 15.09226 23.24988 30.61207
438 2 16.95056 18.21318 31.63777
439 2 12.05856 24.10828 31.01907
440 2 19.98426 17.35478 31.23087
441 2 17.45816 21.29608 31.01907
442 2 14.58466 20.16698 31.23087
443 1 11.76096 19.95158 34.42487
444 1 15.84146 21.79148 33.12247
445 1 17.17986 17.94428 34.56927
446 1 21.02516 23.64068 33.14027
447 2 12.68236 21.95568 33.14657
448 2 14.56256 19.76038 34.52687
449 2 18.46176 23.19018 32.87247
450 2 20.16916 18.37578 34.25187
451 2 15.19206 24.20298 33.78127
452 2 12.46436 17.39508 33.76077
453 2 20.47456 21.31628 33.83627
454 2 17.93056 20.32478 33.99907
455 1 14.72616 20.16808 37.38517
456 1 19.01436 21.58738 35.99557
457 1 20.44726 17.67768 37.17997
458 1 13.45166 23.79288 35.79067
459 2 15.46846 22.20688 35.62017
460 2 18.42626 16.19848 36.56817
461 2 21.63816 23.29048 36.01447
462 2 12.40766 18.22768 37.11687
463 2 18.45046 23.94178 36.20087
464 2 17.58386 19.64348 37.10347
465 2 12.83676 21.38958 36.85057
466 2 21.06866 20.16958 36.71007
467 1 18.08086 19.97818 39.90047
468 1 11.14286 21.75648 38.71617
469 1 12.84196 17.59758 39.77717
470 1 16.97316 24.06298 38.56797
471 2 19.12776 18.14988 42.70137
472 2 16.83006 12.16818 42.18717
473 2 15.59806 1.63916 36.64437
474 2 18.84326 17.31778 39.17437
475 2 21.66846 24.17688 38.80467
476 2 5.83066 20.23248 42.16067
477 2 16.28486 21.80948 39.10777
478 2 13.66346 20.27078 39.40107
479 1 21.57496 19.71228 42.35717
480 1 14.74896 21.74458 41.50627
481 1 16.57656 17.68898 43.19367
482 1 20.23686 23.69618 40.86097
483 2 6.38137 23.23088 41.48187
484 2 20.50486 23.72478 43.69497
485 2 19.45326 22.02418 38.60057
486 2 14.58296 1.77944 44.34827
487 2 15.07986 17.22168 45.86987
488 2 9.07796 21.19838 41.58857
489 2 21.08046 19.36368 39.50317
490 2 15.51746 17.68018 36.60997
491 1 14.58496 19.63848 45.62467
492 1 18.02136 21.83118 43.91677
493 1 19.69266 18.25608 45.08687
494 1 12.53426 23.60898 43.91237
495 2 11.72536 22.08338 41.49927
496 2 4.13967 21.83858 44.65907
497 2 8.35260 14.38268 38.90537
498 2 32.02866 19.26068 40.02817
499 2 19.99766 4.66693 44.76027
500 2 21.98516 1.78606 41.86757
501 2 12.99366 13.39248 43.89797
502 2 27.39976 19.93888 42.11227
503 1 27.05286 4.08007 29.19637
504 1 30.93256 5.85267 27.75807
505 1 32.45256 1.91139 29.19637
506 1 25.53296 8.02136 27.75807
507 2 28.06356 6.38929 27.96437
508 2 29.92196 3.54345 28.99007
509 2 22.66396 7.48474 27.96437
510 2 24.52226 2.44800 28.99007
511 2 30.42956 8.34312 28.37127
512 2 27.55596 1.58963 28.58317
513 2 25.02986 5.53091 28.37127
514 2 22.15626 4.40183 28.58317
515 1 30.28056 4.08007 31.84407
516 1 23.36096 5.85267 30.40577
517 1 24.88086 1.91139 31.84407
518 1 28.76056 8.02136 30.40577
519 2 31.29116 6.38929 30.61207
520 2 22.35026 3.54345 31.63777
521 2 25.89156 7.48474 30.61207
522 2 27.74996 2.44800 31.63777
523 2 22.85786 8.34312 31.01907
524 2 30.78356 1.58963 31.23087
525 2 28.25756 5.53091 31.01907
526 2 25.38396 4.40183 31.23087
527 1 22.79456 4.09283 34.41557
528 1 26.57476 5.92896 33.01087
529 1 27.99136 1.69012 34.33147
530 1 31.96166 8.12410 33.03617
531 2 23.59806 6.12958 33.21017
532 2 25.60166 3.30883 34.25517
533 2 29.34086 7.73408 33.38917
534 2 31.06726 2.08396 34.15087
535 2 26.44886 8.29567 33.44387
536 2 22.80016 1.70027 33.84887
537 2 31.34006 5.78151 33.69727
538 2 28.61096 4.45536 33.80517
539 1 26.07086 4.36042 37.26147
540 1 29.83226 5.74992 35.66187
541 1 31.40566 1.90856 36.94977
542 1 24.56566 8.33894 35.65847
543 2 26.99696 6.40506 35.66307
544 2 31.96946 4.39971 36.73427
545 2 32.38206 7.53381 36.06477
546 2 23.12996 2.54870 36.95767
547 2 29.71436 8.22119 36.39877
548 2 26.14576 1.85276 36.48047
549 2 23.87426 5.59666 36.08877
550 2 30.82766 5.42459 41.77077
551 1 29.45976 3.84306 39.76867
552 1 22.32566 5.90620 38.24457
553 1 23.74986 2.07851 39.78897
554 1 28.08126 7.98514 38.66397
555 2 27.33246 5.38022 38.93117
556 2 0.79933 9.86472 45.48557
557 2 24.91536 7.31662 38.28987
558 2 28.19566 3.14255 45.27267
559 2 27.08836 10.33581 39.54727
560 2 25.39516 8.39070 41.82137
561 2 24.33506 12.23988 39.61477
562 2 24.50276 4.47132 39.18047
563 1 32.55146 3.89219 42.55727
564 1 25.69026 5.40503 41.05757
565 1 27.21976 1.68523 42.67237
566 1 31.17706 8.08092 41.41287
567 2 3.87563 1.36317 44.54237
568 2 25.09456 24.42758 41.75277
569 2 28.77526 3.48316 36.81777
570 2 21.47276 3.75183 39.79407
571 2 25.57016 14.19118 43.95857
572 2 22.20926 14.34788 41.44437
573 2 0.85341 6.32863 41.24337
574 2 22.40996 2.59785 44.92217
575 1 24.79806 3.88765 45.29127
576 1 29.04666 5.81117 43.85247
577 1 30.66196 1.81499 45.26727
578 1 23.78236 7.78697 43.72347
579 2 0.89039 9.56515 42.16107
580 2 27.84136 3.82026 41.86697
581 2 27.78246 12.10708 42.04877
582 2 17.22616 23.19778 41.66647
583 2 22.90186 13.50868 44.74997
584 2 7.79782 18.66088 42.32887
585 2 19.56286 5.58726 41.59177
586 2 30.00496 2.40416 42.17907
587 1 27.05286 11.96268 29.19637
588 1 30.93256 13.73528 27.75807
589 1 32.45256 9.79396 29.19637
590 1 25.53296 15.90398 27.75807
591 2 28.06356 14.27188 27.96437
592 2 29.92196 11.42608 28.99007
593 2 22.66396 15.36728 27.96437
594 2 24.52226 10.33058 28.99007
595 2 30.42956 16.22568 28.37127
596 2 27.55596 9.47220 28.58317
597 2 25.02986 13.41348 28.37127
598 2 22.15626 12.28438 28.58317
599 1 30.28056 11.96268 31.84407
600 1 23.36096 13.73528 30.40577
601 1 24.88086 9.79396 31.84407
602 1 28.76056 15.90398 30.40577
603 2 31.29116 14.27188 30.61207
604 2 22.35026 11.42608 31.63777
605 2 25.89156 15.36728 30.61207
606 2 27.74996 10.33058 31.63777
607 2 22.85786 16.22568 31.01907
608 2 30.78356 9.47220 31.23087
609 2 28.25756 13.41348 31.01907
610 2 25.38396 12.28438 31.23087
611 1 22.93706 12.00588 34.68367
612 1 26.65016 13.71928 33.23167
613 1 28.26216 9.79486 34.53867
614 1 31.64676 16.10128 33.12887
615 2 23.84736 13.86128 33.48187
616 2 25.86746 11.10758 34.70737
617 2 28.84326 14.96298 33.44627
618 2 30.97926 10.60394 34.51067
619 2 25.98976 16.17118 33.47437
620 2 23.33806 9.43404 34.24907
621 2 31.30926 13.28388 33.75967
622 2 28.65786 12.37548 33.89977
623 1 26.11896 11.96158 37.29897
624 1 29.82836 13.65408 35.71207
625 1 31.48836 9.80153 37.22737
626 1 24.41266 15.98728 35.77217
627 2 26.89236 14.31108 36.36247
628 2 28.63196 11.45938 36.99257
629 2 31.90746 15.58688 35.64177
630 2 26.50886 9.11097 37.06807
631 2 29.06486 15.88128 36.48887
632 2 30.01366 9.18336 39.40597
633 2 23.96626 13.47768 36.59547
634 2 31.94486 12.33788 36.88367
635 1 29.19306 11.89458 39.99197
636 1 22.25746 13.63118 38.53527
637 1 24.11856 9.65182 39.83287
638 1 27.57176 15.74188 38.56797
639 2 0.93188 14.26948 41.44747
640 2 30.90866 12.09378 45.11487
641 2 21.70556 16.28358 39.31177
642 2 27.28966 13.16498 39.34897
643 2 3.10449 12.32028 39.10877
644 2 30.81216 7.71971 44.06527
645 2 28.19086 15.04108 41.08087
646 2 21.87206 8.45941 38.79977
647 1 32.55366 11.81968 42.92197
648 1 25.60876 13.43478 41.31977
649 1 27.10956 9.76157 42.90387
650 1 30.72176 15.71918 41.25527
651 2 20.28836 12.49668 44.86827
652 2 17.52406 10.94931 44.83147
653 2 28.64196 7.55655 41.45127
654 2 5.79372 3.22126 44.76467
655 2 26.71656 17.76848 36.72167
656 2 14.08626 16.20758 41.65197
657 2 29.82386 14.37448 39.14897
658 2 24.98526 15.93228 41.92307
659 1 24.83396 11.68348 45.17387
660 1 28.94156 13.35178 44.14507
661 1 30.34896 9.71460 45.49797
662 1 23.55486 16.14678 44.20177
663 2 24.75846 11.34358 42.46437
664 2 25.57706 9.42474 44.74037
665 2 30.15886 10.32976 43.03407
666 2 20.28786 20.49188 44.42257
667 2 30.19896 6.03221 38.30757
668 2 7.81931 17.53168 39.40127
669 2 26.22866 18.35528 39.51777
670 2 27.66456 11.50418 45.37457
671 1 27.05286 19.84518 29.19637
672 1 30.93256 21.61788 27.75807
673 1 32.45256 17.67658 29.19637
674 1 25.53296 23.78648 27.75807
675 2 28.06356 22.15448 27.96437
676 2 29.92196 19.30858 28.99007
677 2 22.66396 23.24988 27.96437
678 2 24.52226 18.21318 28.99007
679 2 30.42956 24.10828 28.37127
680 2 27.55596 17.35478 28.58317
681 2 25.02986 21.29608 28.37127
682 2 22.15626 20.16698 28.58317
683 1 30.28056 19.84518 31.84407
684 1 23.36096 21.61788 30.40577
685 1 24.88086 17.67658 31.84407
686 1 28.76056 23.78648 30.40577
687 2 31.29116 22.15448 30.61207
688 2 22.35026 19.30858 31.63777
689 2 25.89156 23.24988 30.61207
690 2 27.74996 18.21318 31.63777
691 2 22.85786 24.10828 31.01907
692 2 30.78356 17.35478 31.23087
693 2 28.25756 21.29608 31.01907
694 2 25.38396 20.16698 31.23087
695 1 22.55676 19.78468 34.53037
696 1 26.33936 21.60388 32.94187
697 1 27.89226 17.61888 34.50217
698 1 32.02566 23.83628 33.01767
699 2 23.62066 21.82418 33.15237
700 2 25.41996 19.23148 34.61717
701 2 28.97776 23.17708 33.41587
702 2 30.80486 18.56408 34.38407
703 2 25.90916 24.13078 33.74977
704 2 23.21866 17.45138 33.71257
705 2 31.79486 21.34368 33.46377
706 2 28.34466 20.25588 33.96877
707 1 25.96496 19.96528 37.15947
708 1 29.61796 21.53598 35.62637
709 1 31.02526 17.76278 37.05277
710 1 24.34656 23.93648 35.69457
711 2 26.87786 22.34158 35.70927
712 2 28.55156 19.31968 36.83517
713 2 32.18006 23.13928 36.05837
714 2 24.68326 15.30258 38.41057
715 2 29.47106 23.97768 36.13517
716 2 23.14316 18.15728 36.77977
717 2 23.79426 21.27908 36.52307
718 2 31.72776 20.14358 36.70087
719 1 29.15266 19.76428 40.00797
720 1 22.29726 21.64718 38.22927
721 1 23.63136 17.72548 39.91837
722 1 27.70486 23.69878 38.42947
723 2 30.25166 22.35878 38.78807
724 2 32.74626 17.40198 41.88377
725 2 24.94336 23.30348 38.64107
726 2 24.55666 19.10928 42.24677
727 2 0.28218 24.07278 38.87747
728 2 29.50656 16.97698 39.35967
729 2 27.29126 21.28148 39.02127
730 2 24.07496 20.44928 39.36547
731 1 32.33396 19.77288 42.73617
732 1 25.32236 21.74668 40.94457
733 1 27.10746 17.49168 42.25627
734 1 31.12186 23.95718 41.09977
735 2 22.32786 22.02268 40.92127
736 2 32.03636 3.45713 39.85207
737 2 29.52096 1.51687 38.66867
738 2 19.58046 15.54428 44.05327
739 2 26.49436 2.71235 39.94567
740 2 23.27316 5.34745 44.57137
741 2 28.90186 24.03248 44.47127
742 2 28.37366 23.21198 41.55757
743 1 25.14316 19.87738 44.69997
744 1 28.87116 21.74548 43.81997
745 1 30.10296 17.65978 44.86047
746 1 23.35356 24.09248 43.74577
747 2 29.76386 18.32298 42.15767
748 2 30.36816 21.24088 41.69867
749 2 4.15972 6.01495 43.80567
750 2 25.65586 17.52808 44.31427
751 2 24.64486 3.44297 42.48847
752 2 19.59856 13.35888 42.00727
753 2 25.67516 1.48206 44.73587
754 2 16.89266 3.47584 44.81137
755 3 17.14106 19.40078 45.26407
756 3 14.55976 16.83218 45.03837
757 2 16.93536 10.00742 49.59381
758 2 16.81895 10.66634 49.64524
