# LAMMPS data file
1152 atoms
3 atom types
0.0 27.12964 xlo xhi
0.0 24.96306 ylo yhi
0.0 31.37284 zlo zhi

Atoms # atomic

1 1 1.54044000 1.07660000 0.70506000
2 1 2.16700000 1.21444000 8.79409000
3 1 1.84774000 5.25233000 0.85879400
4 1 1.39744000 5.00330000 8.25227000
5 1 1.89489000 9.34109000 0.61320100
6 1 2.15897000 9.34583000 8.88621000
7 1 8.34299000 0.97026600 0.34868000
8 1 8.17658000 0.99483400 8.49973000
9 1 8.24848000 5.27319000 0.86629700
10 1 8.53958000 4.97113000 8.90066000
11 1 8.46540000 9.43396000 0.61844200
12 1 8.17186000 9.05646000 9.01436000
13 1 4.84084000 3.28355000 6.98815000
14 1 4.91637000 3.16617000 15.02430000
15 1 5.19981000 7.25745000 6.88388000
16 1 5.31527000 7.30958000 14.63160000
17 1 5.01496000 11.46870000 6.51590000
18 1 5.19844000 11.33460000 14.88610000
19 1 11.73780000 2.83358000 7.22247000
20 1 11.98570000 3.06628000 14.94540000
21 1 11.81980000 6.94983000 7.39651000
22 1 12.38700000 7.28230000 15.08980000
23 1 12.06460000 11.44180000 7.90435000
24 1 12.05960000 11.58810000 14.88450000
25 1 1.45042000 2.44359000 4.87821000
26 1 1.43985000 3.55079000 12.77610000
27 1 1.72751000 7.04057000 4.86793000
28 1 1.64867000 7.01252000 12.37190000
29 1 1.43637000 11.09690000 5.41168000
30 1 1.68359000 11.61830000 12.69770000
31 1 8.57702000 2.95083000 5.27156000
32 1 8.57158000 3.03400000 12.97290000
33 1 8.94273000 7.23146000 4.87937000
34 1 8.74109000 7.13758000 12.85080000
35 1 8.88782000 11.51530000 4.84771000
36 1 8.50711000 11.34230000 12.47730000
37 1 5.08086000 1.00183000 2.52285000
38 1 5.07842000 1.46104000 11.35650000
39 1 5.00174000 4.96149000 3.40203000
40 1 4.71497000 5.31953000 11.01230000
41 1 5.18876000 9.62655000 2.92134000
42 1 5.07419000 9.58319000 11.24560000
43 1 11.69510000 0.59077800 2.95267000
44 1 11.97500000 0.84073500 11.24200000
45 1 12.18780000 4.94001000 3.19129000
46 1 11.71780000 4.91940000 10.78620000
47 1 12.10420000 9.33576000 2.86542000
48 1 12.03750000 9.33729000 11.05080000
49 2 9.48330000 5.03523000 3.26859000
50 2 13.02800000 6.74177000 9.38112000
51 2 11.74590000 2.61554000 4.82036000
52 2 7.35229000 3.28898000 7.66353000
53 2 5.64112000 4.99246000 8.45965000
54 2 9.58585000 4.50454000 11.64380000
55 2 3.59348000 9.41936000 5.44626000
56 2 3.12789000 3.34341000 9.99375000
57 2 9.81748000 9.82624000 6.81509000
58 2 1.08353000 5.10251000 10.79180000
59 2 10.96530000 9.18334000 0.46250900
60 2 2.20831000 3.05330000 6.98352000
61 2 3.71394000 7.43078000 2.57348000
62 2 10.64350000 9.61960000 13.15880000
63 2 12.96920000 2.91185000 9.42935000
64 2 2.06119000 7.09999000 7.37706000
65 2 13.54110000 9.44394000 13.70980000
66 2 6.25511000 1.01665000 4.87157000
67 2 9.63462000 9.42055000 3.56479000
68 2 10.17790000 7.38397000 9.70586000
69 2 5.28984000 9.60109000 8.35309000
70 2 6.76324000 3.66957000 11.04260000
71 2 10.15020000 11.77920000 0.90238700
72 2 0.33392900 4.88638000 14.71960000
73 2 8.34271000 7.13071000 7.51607000
74 2 11.82320000 11.07210000 4.53862000
75 2 3.17271000 5.44794000 5.92961000
76 2 9.81811000 5.15391000 6.09672000
77 2 3.00942000 0.48190100 4.30834000
78 2 3.34822000 11.71370000 10.56370000
79 2 1.56484000 4.96532000 3.33240000
80 2 10.57850000 5.31012000 15.09700000
81 2 9.23034000 1.36662000 3.03006000
82 2 11.50520000 7.10162000 4.59549000
83 2 4.10536000 3.03640000 4.73374000
84 2 2.95414000 11.73190000 7.54358000
85 2 11.15120000 5.07908000 8.45873000
86 2 1.17373000 9.28679000 11.26090000
87 2 12.33380000 7.16194000 12.08800000
88 2 10.25130000 0.62646800 13.58370000
89 2 1.25861000 7.07019000 14.84680000
90 2 0.34188400 9.33065000 6.96529000
91 2 1.43689000 9.26537000 3.78546000
92 2 6.30058000 3.27931000 1.58029000
93 2 9.56950000 3.15897000 15.52600000
94 2 9.94711000 2.77392000 9.46133000
95 2 12.05310000 3.26171000 12.49190000
96 2 6.54276000 5.10501000 5.24157000
97 2 4.97322000 12.34650000 8.69264000
98 2 3.12969000 9.05377000 13.15010000
99 2 6.67946000 7.18844000 2.42787000
100 2 6.59328000 8.98395000 13.50080000
101 2 2.45200000 11.35750000 1.63223000
102 2 6.17854000 11.32180000 10.00940000
103 2 4.17266000 7.37707000 9.68211000
104 2 9.36578000 11.31530000 9.91713000
105 2 6.18037000 7.28377000 10.62080000
106 2 7.51343000 11.78830000 2.16862000
107 2 12.97660000 0.76091900 5.68376000
108 2 6.90973000 0.75840200 13.08690000
109 2 1.03076000 0.91026100 13.86140000
110 2 3.75546000 0.83136600 14.34090000
111 2 6.92497000 5.48261000 13.30290000
112 2 3.19485000 6.03600000 14.04220000
113 2 13.15180000 4.77862000 5.32439000
114 2 6.58450000 9.27664000 5.99260000
115 2 13.34610000 2.67373000 2.43477000
116 2 0.74466800 11.07810000 10.05150000
117 2 3.03053000 2.92393000 2.60385000
118 2 10.24940000 1.23573000 5.65597000
119 2 0.35018500 11.50040000 2.42367000
120 2 13.60230000 7.61522000 2.74174000
121 3 6.91539000 1.36477000 13.84460000
122 3 6.80681000 11.60360000 10.79310000
123 3 7.22471000 9.60436000 13.99370000
124 3 9.68898000 0.93835000 6.49701000
125 3 13.56510000 11.82090000 10.17120000
126 3 7.15083000 5.30034000 14.25350000
127 3 12.68770000 2.54057000 1.65673000
128 3 3.72530000 9.49122000 13.90600000
129 3 -0.00787818 4.81790000 6.23605000
130 3 3.40530000 3.14731000 1.57655000
131 3 3.20022000 1.31074000 13.55460000
132 3 0.04321980 0.84350000 13.97430000
133 3 13.54110000 7.06957000 1.89155000
134 3 7.13161000 7.51803000 10.91510000
135 3 3.49191000 11.23210000 1.27394000
136 3 6.79855000 7.68182000 1.41140000
137 3 4.99342000 0.90405300 8.32671000
138 3 3.46363000 7.52616000 10.38370000
139 3 13.45650000 11.40110000 1.53679000
140 3 0.15287900 0.89762600 6.47385000
141 3 6.82370000 9.49737000 5.01859000
142 3 6.93924000 11.49050000 1.38773000
143 3 3.31001000 5.10500000 13.64970000
144 3 10.38590000 11.36380000 9.99051000
145 1 1.54044000 1.07660000 16.39148000
146 1 2.16700000 1.21444000 24.48051000
147 1 1.84774000 5.25233000 16.54521400
148 1 1.39744000 5.00330000 23.93869000
149 1 1.89489000 9.34109000 16.29962100
150 1 2.15897000 9.34583000 24.57263000
151 1 8.34299000 0.97026600 16.03510000
152 1 8.17658000 0.99483400 24.18615000
153 1 8.24848000 5.27319000 16.55271700
154 1 8.53958000 4.97113000 24.58708000
155 1 8.46540000 9.43396000 16.30486200
156 1 8.17186000 9.05646000 24.70078000
157 1 4.84084000 3.28355000 22.67457000
158 1 4.91637000 3.16617000 30.71072000
159 1 5.19981000 7.25745000 22.57030000
160 1 5.31527000 7.30958000 30.31802000
161 1 5.01496000 11.46870000 22.20232000
162 1 5.19844000 11.33460000 30.57252000
163 1 11.73780000 2.83358000 22.90889000
164 1 11.98570000 3.06628000 30.63182000
165 1 11.81980000 6.94983000 23.08293000
166 1 12.38700000 7.28230000 30.77622000
167 1 12.06460000 11.44180000 23.59077000
168 1 12.05960000 11.58810000 30.57092000
169 1 1.45042000 2.44359000 20.56463000
170 1 1.43985000 3.55079000 28.46252000
171 1 1.72751000 7.04057000 20.55435000
172 1 1.64867000 7.01252000 28.05832000
173 1 1.43637000 11.09690000 21.09810000
174 1 1.68359000 11.61830000 28.38412000
175 1 8.57702000 2.95083000 20.95798000
176 1 8.57158000 3.03400000 28.65932000
177 1 8.94273000 7.23146000 20.56579000
178 1 8.74109000 7.13758000 28.53722000
179 1 8.88782000 11.51530000 20.53413000
180 1 8.50711000 11.34230000 28.16372000
181 1 5.08086000 1.00183000 18.20927000
182 1 5.07842000 1.46104000 27.04292000
183 1 5.00174000 4.96149000 19.08845000
184 1 4.71497000 5.31953000 26.69872000
185 1 5.18876000 9.62655000 18.60776000
186 1 5.07419000 9.58319000 26.93202000
187 1 11.69510000 0.59077800 18.63909000
188 1 11.97500000 0.84073500 26.92842000
189 1 12.18780000 4.94001000 18.87771000
190 1 11.71780000 4.91940000 26.47262000
191 1 12.10420000 9.33576000 18.55184000
192 1 12.03750000 9.33729000 26.73722000
193 2 9.48330000 5.03523000 18.95501000
194 2 13.02800000 6.74177000 25.06754000
195 2 11.74590000 2.61554000 20.50678000
196 2 7.35229000 3.28898000 23.34995000
197 2 5.64112000 4.99246000 24.14607000
198 2 9.58585000 4.50454000 27.33022000
199 2 3.59348000 9.41936000 21.13268000
200 2 3.12789000 3.34341000 25.68017000
201 2 9.81748000 9.82624000 22.50151000
202 2 1.08353000 5.10251000 26.47822000
203 2 10.96530000 9.18334000 16.14892900
204 2 2.20831000 3.05330000 22.66994000
205 2 3.71394000 7.43078000 18.25990000
206 2 10.64350000 9.61960000 28.84522000
207 2 12.96920000 2.91185000 25.11577000
208 2 2.06119000 7.09999000 23.06348000
209 2 13.54110000 9.44394000 29.39622000
210 2 6.25511000 1.01665000 20.55799000
211 2 9.63462000 9.42055000 19.25121000
212 2 10.17790000 7.38397000 25.39228000
213 2 5.28984000 9.60109000 24.03951000
214 2 6.76324000 3.66957000 26.72902000
215 2 10.15020000 11.77920000 16.58880700
216 2 0.33392900 4.88638000 30.40602000
217 2 8.34271000 7.13071000 23.20249000
218 2 11.82320000 11.07210000 20.22504000
219 2 3.17271000 5.44794000 21.61603000
220 2 9.81811000 5.15391000 21.78314000
221 2 3.00942000 0.48190100 19.99476000
222 2 3.34822000 11.71370000 26.25012000
223 2 1.56484000 4.96532000 19.01882000
224 2 10.57850000 5.31012000 30.78342000
225 2 9.23034000 1.36662000 18.71648000
226 2 11.50520000 7.10162000 20.28191000
227 2 4.10536000 3.03640000 20.42016000
228 2 2.95414000 11.73190000 23.23000000
229 2 11.15120000 5.07908000 24.14515000
230 2 1.17373000 9.28679000 26.94732000
231 2 12.33380000 7.16194000 27.77442000
232 2 10.25130000 0.62646800 29.27012000
233 2 1.25861000 7.07019000 30.53322000
234 2 0.34188400 9.33065000 22.65171000
235 2 1.43689000 9.26537000 19.47188000
236 2 6.30058000 3.27931000 17.26671000
237 2 9.56950000 3.15897000 31.21242000
238 2 9.94711000 2.77392000 25.14775000
239 2 12.05310000 3.26171000 28.17832000
240 2 6.54276000 5.10501000 20.92799000
241 2 4.97322000 12.34650000 24.37906000
242 2 3.12969000 9.05377000 28.83652000
243 2 6.67946000 7.18844000 18.11429000
244 2 6.59328000 8.98395000 29.18722000
245 2 2.45200000 11.35750000 17.31865000
246 2 6.17854000 11.32180000 25.69582000
247 2 4.17266000 7.37707000 25.36853000
248 2 9.36578000 11.31530000 25.60355000
249 2 6.18037000 7.28377000 26.30722000
250 2 7.51343000 11.78830000 17.85504000
251 2 12.97660000 0.76091900 21.37018000
252 2 6.90973000 0.75840200 28.77332000
253 2 1.03076000 0.91026100 29.54782000
254 2 3.75546000 0.83136600 30.02732000
255 2 6.92497000 5.48261000 28.98932000
256 2 3.19485000 6.03600000 29.72862000
257 2 13.15180000 4.77862000 21.01081000
258 2 6.58450000 9.27664000 21.67902000
259 2 13.34610000 2.67373000 18.12119000
260 2 0.74466800 11.07810000 25.73792000
261 2 3.03053000 2.92393000 18.29027000
262 2 10.24940000 1.23573000 21.34239000
263 2 0.35018500 11.50040000 18.11009000
264 2 13.60230000 7.61522000 18.42816000
265 3 6.91539000 1.36477000 29.53102000
266 3 6.80681000 11.60360000 26.47952000
267 3 7.22471000 9.60436000 29.68012000
268 3 9.68898000 0.93835000 22.18343000
269 3 13.56510000 11.82090000 25.85762000
270 3 7.15083000 5.30034000 29.93992000
271 3 12.68770000 2.54057000 17.34315000
272 3 3.72530000 9.49122000 29.59242000
273 3 -0.00787818 4.81790000 21.92247000
274 3 3.40530000 3.14731000 17.26297000
275 3 3.20022000 1.31074000 29.24102000
276 3 0.04321980 0.84350000 29.66072000
277 3 13.54110000 7.06957000 17.57797000
278 3 7.13161000 7.51803000 26.60152000
279 3 3.49191000 11.23210000 16.96036000
280 3 6.79855000 7.68182000 17.09782000
281 3 4.99342000 0.90405300 24.01313000
282 3 3.46363000 7.52616000 26.07012000
283 3 13.45650000 11.40110000 17.22321000
284 3 0.15287900 0.89762600 22.16027000
285 3 6.82370000 9.49737000 20.70501000
286 3 6.93924000 11.49050000 17.07415000
287 3 3.31001000 5.10500000 29.33612000
288 3 10.38590000 11.36380000 25.67693000
289 1 1.54044000 13.55813000 0.70506000
290 1 2.16700000 13.69597000 8.79409000
291 1 1.84774000 17.73386000 0.85879400
292 1 1.39744000 17.48483000 8.25227000
293 1 1.89489000 21.82262000 0.61320100
294 1 2.15897000 21.82736000 8.88621000
295 1 8.34299000 13.45179600 0.34868000
296 1 8.17658000 13.47636400 8.49973000
297 1 8.24848000 17.75472000 0.86629700
298 1 8.53958000 17.45266000 8.90066000
299 1 8.46540000 21.91549000 0.61844200
300 1 8.17186000 21.53799000 9.01436000
301 1 4.84084000 15.76508000 6.98815000
302 1 4.91637000 15.64770000 15.02430000
303 1 5.19981000 19.73898000 6.88388000
304 1 5.31527000 19.79111000 14.63160000
305 1 5.01496000 23.95023000 6.51590000
306 1 5.19844000 23.81613000 14.88610000
307 1 11.73780000 15.31511000 7.22247000
308 1 11.98570000 15.54781000 14.94540000
309 1 11.81980000 19.43136000 7.39651000
310 1 12.38700000 19.76383000 15.08980000
311 1 12.06460000 23.92333000 7.90435000
312 1 12.05960000 24.06963000 14.88450000
313 1 1.45042000 14.92512000 4.87821000
314 1 1.43985000 16.03232000 12.77610000
315 1 1.72751000 19.52210000 4.86793000
316 1 1.64867000 19.49405000 12.37190000
317 1 1.43637000 23.57843000 5.41168000
318 1 1.68359000 24.09983000 12.69770000
319 1 8.57702000 15.43236000 5.27156000
320 1 8.57158000 15.51553000 12.97290000
321 1 8.94273000 19.71299000 4.87937000
322 1 8.74109000 19.61911000 12.85080000
323 1 8.88782000 23.99683000 4.84771000
324 1 8.50711000 23.82383000 12.47730000
325 1 5.08086000 13.48336000 2.52285000
326 1 5.07842000 13.94257000 11.35650000
327 1 5.00174000 17.44302000 3.40203000
328 1 4.71497000 17.80106000 11.01230000
329 1 5.18876000 22.10808000 2.92134000
330 1 5.07419000 22.06472000 11.24560000
331 1 11.69510000 13.07230800 2.95267000
332 1 11.97500000 13.32226500 11.24200000
333 1 12.18780000 17.42154000 3.19129000
334 1 11.71780000 17.40093000 10.78620000
335 1 12.10420000 21.81729000 2.86542000
336 1 12.03750000 21.81882000 11.05080000
337 2 9.48330000 17.51676000 3.26859000
338 2 13.02800000 19.22330000 9.38112000
339 2 11.74590000 15.09707000 4.82036000
340 2 7.35229000 15.77051000 7.66353000
341 2 5.64112000 17.47399000 8.45965000
342 2 9.58585000 16.98607000 11.64380000
343 2 3.59348000 21.90089000 5.44626000
344 2 3.12789000 15.82494000 9.99375000
345 2 9.81748000 22.30777000 6.81509000
346 2 1.08353000 17.58404000 10.79180000
347 2 10.96530000 21.66487000 0.46250900
348 2 2.20831000 15.53483000 6.98352000
349 2 3.71394000 19.91231000 2.57348000
350 2 10.64350000 22.10113000 13.15880000
351 2 12.96920000 15.39338000 9.42935000
352 2 2.06119000 19.58152000 7.37706000
353 2 13.54110000 21.92547000 13.70980000
354 2 6.25511000 13.49818000 4.87157000
355 2 9.63462000 21.90208000 3.56479000
356 2 10.17790000 19.86550000 9.70586000
357 2 5.28984000 22.08262000 8.35309000
358 2 6.76324000 16.15110000 11.04260000
359 2 10.15020000 24.26073000 0.90238700
360 2 0.33392900 17.36791000 14.71960000
361 2 8.34271000 19.61224000 7.51607000
362 2 11.82320000 23.55363000 4.53862000
363 2 3.17271000 17.92947000 5.92961000
364 2 9.81811000 17.63544000 6.09672000
365 2 3.00942000 12.96343100 4.30834000
366 2 3.34822000 24.19523000 10.56370000
367 2 1.56484000 17.44685000 3.33240000
368 2 10.57850000 17.79165000 15.09700000
369 2 9.23034000 13.84815000 3.03006000
370 2 11.50520000 19.58315000 4.59549000
371 2 4.10536000 15.51793000 4.73374000
372 2 2.95414000 24.21343000 7.54358000
373 2 11.15120000 17.56061000 8.45873000
374 2 1.17373000 21.76832000 11.26090000
375 2 12.33380000 19.64347000 12.08800000
376 2 10.25130000 13.10799800 13.58370000
377 2 1.25861000 19.55172000 14.84680000
378 2 0.34188400 21.81218000 6.96529000
379 2 1.43689000 21.74690000 3.78546000
380 2 6.30058000 15.76084000 1.58029000
381 2 9.56950000 15.64050000 15.52600000
382 2 9.94711000 15.25545000 9.46133000
383 2 12.05310000 15.74324000 12.49190000
384 2 6.54276000 17.58654000 5.24157000
385 2 4.97322000 24.82803000 8.69264000
386 2 3.12969000 21.53530000 13.15010000
387 2 6.67946000 19.66997000 2.42787000
388 2 6.59328000 21.46548000 13.50080000
389 2 2.45200000 23.83903000 1.63223000
390 2 6.17854000 23.80333000 10.00940000
391 2 4.17266000 19.85860000 9.68211000
392 2 9.36578000 23.79683000 9.91713000
393 2 6.18037000 19.76530000 10.62080000
394 2 7.51343000 24.26983000 2.16862000
395 2 12.97660000 13.24244900 5.68376000
396 2 6.90973000 13.23993200 13.08690000
397 2 1.03076000 13.39179100 13.86140000
398 2 3.75546000 13.31289600 14.34090000
399 2 6.92497000 17.96414000 13.30290000
400 2 3.19485000 18.51753000 14.04220000
401 2 13.15180000 17.26015000 5.32439000
402 2 6.58450000 21.75817000 5.99260000
403 2 13.34610000 15.15526000 2.43477000
404 2 0.74466800 23.55963000 10.05150000
405 2 3.03053000 15.40546000 2.60385000
406 2 10.24940000 13.71726000 5.65597000
407 2 0.35018500 23.98193000 2.42367000
408 2 13.60230000 20.09675000 2.74174000
409 3 6.91539000 13.84630000 13.84460000
410 3 6.80681000 24.08513000 10.79310000
411 3 7.22471000 22.08589000 13.99370000
412 3 9.68898000 13.41988000 6.49701000
413 3 13.56510000 24.30243000 10.17120000
414 3 7.15083000 17.78187000 14.25350000
415 3 12.68770000 15.02210000 1.65673000
416 3 3.72530000 21.97275000 13.90600000
417 3 -0.00787818 17.29943000 6.23605000
418 3 3.40530000 15.62884000 1.57655000
419 3 3.20022000 13.79227000 13.55460000
420 3 0.04321980 13.32503000 13.97430000
421 3 13.54110000 19.55110000 1.89155000
422 3 7.13161000 19.99956000 10.91510000
423 3 3.49191000 23.71363000 1.27394000
424 3 6.79855000 20.16335000 1.41140000
425 3 4.99342000 13.38558300 8.32671000
426 3 3.46363000 20.00769000 10.38370000
427 3 13.45650000 23.88263000 1.53679000
428 3 0.15287900 13.37915600 6.47385000
429 3 6.82370000 21.97890000 5.01859000
430 3 6.93924000 23.97203000 1.38773000
431 3 3.31001000 17.58653000 13.64970000
432 3 10.38590000 23.84533000 9.99051000
433 1 1.54044000 13.55813000 16.39148000
434 1 2.16700000 13.69597000 24.48051000
435 1 1.84774000 17.73386000 16.54521400
436 1 1.39744000 17.48483000 23.93869000
437 1 1.89489000 21.82262000 16.29962100
438 1 2.15897000 21.82736000 24.57263000
439 1 8.34299000 13.45179600 16.03510000
440 1 8.17658000 13.47636400 24.18615000
441 1 8.24848000 17.75472000 16.55271700
442 1 8.53958000 17.45266000 24.58708000
443 1 8.46540000 21.91549000 16.30486200
444 1 8.17186000 21.53799000 24.70078000
445 1 4.84084000 15.76508000 22.67457000
446 1 4.91637000 15.64770000 30.71072000
447 1 5.19981000 19.73898000 22.57030000
448 1 5.31527000 19.79111000 30.31802000
449 1 5.01496000 23.95023000 22.20232000
450 1 5.19844000 23.81613000 30.57252000
451 1 11.73780000 15.31511000 22.90889000
452 1 11.98570000 15.54781000 30.63182000
453 1 11.81980000 19.43136000 23.08293000
454 1 12.38700000 19.76383000 30.77622000
455 1 12.06460000 23.92333000 23.59077000
456 1 12.05960000 24.06963000 30.57092000
457 1 1.45042000 14.92512000 20.56463000
458 1 1.43985000 16.03232000 28.46252000
459 1 1.72751000 19.52210000 20.55435000
460 1 1.64867000 19.49405000 28.05832000
461 1 1.43637000 23.57843000 21.09810000
462 1 1.68359000 24.09983000 28.38412000
463 1 8.57702000 15.43236000 20.95798000
464 1 8.57158000 15.51553000 28.65932000
465 1 8.94273000 19.71299000 20.56579000
466 1 8.74109000 19.61911000 28.53722000
467 1 8.88782000 23.99683000 20.53413000
468 1 8.50711000 23.82383000 28.16372000
469 1 5.08086000 13.48336000 18.20927000
470 1 5.07842000 13.94257000 27.04292000
471 1 5.00174000 17.44302000 19.08845000
472 1 4.71497000 17.80106000 26.69872000
473 1 5.18876000 22.10808000 18.60776000
474 1 5.07419000 22.06472000 26.93202000
475 1 11.69510000 13.07230800 18.63909000
476 1 11.97500000 13.32226500 26.92842000
477 1 12.18780000 17.42154000 18.87771000
478 1 11.71780000 17.40093000 26.47262000
479 1 12.10420000 21.81729000 18.55184000
480 1 12.03750000 21.81882000 26.73722000
481 2 9.48330000 17.51676000 18.95501000
482 2 13.02800000 19.22330000 25.06754000
483 2 11.74590000 15.09707000 20.50678000
484 2 7.35229000 15.77051000 23.34995000
485 2 5.64112000 17.47399000 24.14607000
486 2 9.58585000 16.98607000 27.33022000
487 2 3.59348000 21.90089000 21.13268000
488 2 3.12789000 15.82494000 25.68017000
489 2 9.81748000 22.30777000 22.50151000
490 2 1.08353000 17.58404000 26.47822000
491 2 10.96530000 21.66487000 16.14892900
492 2 2.20831000 15.53483000 22.66994000
493 2 3.71394000 19.91231000 18.25990000
494 2 10.64350000 22.10113000 28.84522000
495 2 12.96920000 15.39338000 25.11577000
496 2 2.06119000 19.58152000 23.06348000
497 2 13.54110000 21.92547000 29.39622000
498 2 6.25511000 13.49818000 20.55799000
499 2 9.63462000 21.90208000 19.25121000
500 2 10.17790000 19.86550000 25.39228000
501 2 5.28984000 22.08262000 24.03951000
502 2 6.76324000 16.15110000 26.72902000
503 2 10.15020000 24.26073000 16.58880700
504 2 0.33392900 17.36791000 30.40602000
505 2 8.34271000 19.61224000 23.20249000
506 2 11.82320000 23.55363000 20.22504000
507 2 3.17271000 17.92947000 21.61603000
508 2 9.81811000 17.63544000 21.78314000
509 2 3.00942000 12.96343100 19.99476000
510 2 3.34822000 24.19523000 26.25012000
511 2 1.56484000 17.44685000 19.01882000
512 2 10.57850000 17.79165000 30.78342000
513 2 9.23034000 13.84815000 18.71648000
514 2 11.50520000 19.58315000 20.28191000
515 2 4.10536000 15.51793000 20.42016000
516 2 2.95414000 24.21343000 23.23000000
517 2 11.15120000 17.56061000 24.14515000
518 2 1.17373000 21.76832000 26.94732000
519 2 12.33380000 19.64347000 27.77442000
520 2 10.25130000 13.10799800 29.27012000
521 2 1.25861000 19.55172000 30.53322000
522 2 0.34188400 21.81218000 22.65171000
523 2 1.43689000 21.74690000 19.47188000
524 2 6.30058000 15.76084000 17.26671000
525 2 9.56950000 15.64050000 31.21242000
526 2 9.94711000 15.25545000 25.14775000
527 2 12.05310000 15.74324000 28.17832000
528 2 6.54276000 17.58654000 20.92799000
529 2 4.97322000 24.82803000 24.37906000
530 2 3.12969000 21.53530000 28.83652000
531 2 6.67946000 19.66997000 18.11429000
532 2 6.59328000 21.46548000 29.18722000
533 2 2.45200000 23.83903000 17.31865000
534 2 6.17854000 23.80333000 25.69582000
535 2 4.17266000 19.85860000 25.36853000
536 2 9.36578000 23.79683000 25.60355000
537 2 6.18037000 19.76530000 26.30722000
538 2 7.51343000 24.26983000 17.85504000
539 2 12.97660000 13.24244900 21.37018000
540 2 6.90973000 13.23993200 28.77332000
541 2 1.03076000 13.39179100 29.54782000
542 2 3.75546000 13.31289600 30.02732000
543 2 6.92497000 17.96414000 28.98932000
544 2 3.19485000 18.51753000 29.72862000
545 2 13.15180000 17.26015000 21.01081000
546 2 6.58450000 21.75817000 21.67902000
547 2 13.34610000 15.15526000 18.12119000
548 2 0.74466800 23.55963000 25.73792000
549 2 3.03053000 15.40546000 18.29027000
550 2 10.24940000 13.71726000 21.34239000
551 2 0.35018500 23.98193000 18.11009000
552 2 13.60230000 20.09675000 18.42816000
553 3 6.91539000 13.84630000 29.53102000
554 3 6.80681000 24.08513000 26.47952000
555 3 7.22471000 22.08589000 29.68012000
556 3 9.68898000 13.41988000 22.18343000
557 3 13.56510000 24.30243000 25.85762000
558 3 7.15083000 17.78187000 29.93992000
559 3 12.68770000 15.02210000 17.34315000
560 3 3.72530000 21.97275000 29.59242000
561 3 -0.00787818 17.29943000 21.92247000
562 3 3.40530000 15.62884000 17.26297000
563 3 3.20022000 13.79227000 29.24102000
564 3 0.04321980 13.32503000 29.66072000
565 3 13.54110000 19.55110000 17.57797000
566 3 7.13161000 19.99956000 26.60152000
567 3 3.49191000 23.71363000 16.96036000
568 3 6.79855000 20.16335000 17.09782000
569 3 4.99342000 13.38558300 24.01313000
570 3 3.46363000 20.00769000 26.07012000
571 3 13.45650000 23.88263000 17.22321000
572 3 0.15287900 13.37915600 22.16027000
573 3 6.82370000 21.97890000 20.70501000
574 3 6.93924000 23.97203000 17.07415000
575 3 3.31001000 17.58653000 29.33612000
576 3 10.38590000 23.84533000 25.67693000
577 1 15.10526000 1.07660000 0.70506000
578 1 15.73182000 1.21444000 8.79409000
579 1 15.41256000 5.25233000 0.85879400
580 1 14.96226000 5.00330000 8.25227000
581 1 15.45971000 9.34109000 0.61320100
582 1 15.72379000 9.34583000 8.88621000
583 1 21.90781000 0.97026600 0.34868000
584 1 21.74140000 0.99483400 8.49973000
585 1 21.81330000 5.27319000 0.86629700
586 1 22.10440000 4.97113000 8.90066000
587 1 22.03022000 9.43396000 0.61844200
588 1 21.73668000 9.05646000 9.01436000
589 1 18.40566000 3.28355000 6.98815000
590 1 18.48119000 3.16617000 15.02430000
591 1 18.76463000 7.25745000 6.88388000
592 1 18.88009000 7.30958000 14.63160000
593 1 18.57978000 11.46870000 6.51590000
594 1 18.76326000 11.33460000 14.88610000
595 1 25.30262000 2.83358000 7.22247000
596 1 25.55052000 3.06628000 14.94540000
597 1 25.38462000 6.94983000 7.39651000
598 1 25.95182000 7.28230000 15.08980000
599 1 25.62942000 11.44180000 7.90435000
600 1 25.62442000 11.58810000 14.88450000
601 1 15.01524000 2.44359000 4.87821000
602 1 15.00467000 3.55079000 12.77610000
603 1 15.29233000 7.04057000 4.86793000
604 1 15.21349000 7.01252000 12.37190000
605 1 15.00119000 11.09690000 5.41168000
606 1 15.24841000 11.61830000 12.69770000
607 1 22.14184000 2.95083000 5.27156000
608 1 22.13640000 3.03400000 12.97290000
609 1 22.50755000 7.23146000 4.87937000
610 1 22.30591000 7.13758000 12.85080000
611 1 22.45264000 11.51530000 4.84771000
612 1 22.07193000 11.34230000 12.47730000
613 1 18.64568000 1.00183000 2.52285000
614 1 18.64324000 1.46104000 11.35650000
615 1 18.56656000 4.96149000 3.40203000
616 1 18.27979000 5.31953000 11.01230000
617 1 18.75358000 9.62655000 2.92134000
618 1 18.63901000 9.58319000 11.24560000
619 1 25.25992000 0.59077800 2.95267000
620 1 25.53982000 0.84073500 11.24200000
621 1 25.75262000 4.94001000 3.19129000
622 1 25.28262000 4.91940000 10.78620000
623 1 25.66902000 9.33576000 2.86542000
624 1 25.60232000 9.33729000 11.05080000
625 2 23.04812000 5.03523000 3.26859000
626 2 26.59282000 6.74177000 9.38112000
627 2 25.31072000 2.61554000 4.82036000
628 2 20.91711000 3.28898000 7.66353000
629 2 19.20594000 4.99246000 8.45965000
630 2 23.15067000 4.50454000 11.64380000
631 2 17.15830000 9.41936000 5.44626000
632 2 16.69271000 3.34341000 9.99375000
633 2 23.38230000 9.82624000 6.81509000
634 2 14.64835000 5.10251000 10.79180000
635 2 24.53012000 9.18334000 0.46250900
636 2 15.77313000 3.05330000 6.98352000
637 2 17.27876000 7.43078000 2.57348000
638 2 24.20832000 9.61960000 13.15880000
639 2 26.53402000 2.91185000 9.42935000
640 2 15.62601000 7.09999000 7.37706000
641 2 27.10592000 9.44394000 13.70980000
642 2 19.81993000 1.01665000 4.87157000
643 2 23.19944000 9.42055000 3.56479000
644 2 23.74272000 7.38397000 9.70586000
645 2 18.85466000 9.60109000 8.35309000
646 2 20.32806000 3.66957000 11.04260000
647 2 23.71502000 11.77920000 0.90238700
648 2 13.89874900 4.88638000 14.71960000
649 2 21.90753000 7.13071000 7.51607000
650 2 25.38802000 11.07210000 4.53862000
651 2 16.73753000 5.44794000 5.92961000
652 2 23.38293000 5.15391000 6.09672000
653 2 16.57424000 0.48190100 4.30834000
654 2 16.91304000 11.71370000 10.56370000
655 2 15.12966000 4.96532000 3.33240000
656 2 24.14332000 5.31012000 15.09700000
657 2 22.79516000 1.36662000 3.03006000
658 2 25.07002000 7.10162000 4.59549000
659 2 17.67018000 3.03640000 4.73374000
660 2 16.51896000 11.73190000 7.54358000
661 2 24.71602000 5.07908000 8.45873000
662 2 14.73855000 9.28679000 11.26090000
663 2 25.89862000 7.16194000 12.08800000
664 2 23.81612000 0.62646800 13.58370000
665 2 14.82343000 7.07019000 14.84680000
666 2 13.90670400 9.33065000 6.96529000
667 2 15.00171000 9.26537000 3.78546000
668 2 19.86540000 3.27931000 1.58029000
669 2 23.13432000 3.15897000 15.52600000
670 2 23.51193000 2.77392000 9.46133000
671 2 25.61792000 3.26171000 12.49190000
672 2 20.10758000 5.10501000 5.24157000
673 2 18.53804000 12.34650000 8.69264000
674 2 16.69451000 9.05377000 13.15010000
675 2 20.24428000 7.18844000 2.42787000
676 2 20.15810000 8.98395000 13.50080000
677 2 16.01682000 11.35750000 1.63223000
678 2 19.74336000 11.32180000 10.00940000
679 2 17.73748000 7.37707000 9.68211000
680 2 22.93060000 11.31530000 9.91713000
681 2 19.74519000 7.28377000 10.62080000
682 2 21.07825000 11.78830000 2.16862000
683 2 26.54142000 0.76091900 5.68376000
684 2 20.47455000 0.75840200 13.08690000
685 2 14.59558000 0.91026100 13.86140000
686 2 17.32028000 0.83136600 14.34090000
687 2 20.48979000 5.48261000 13.30290000
688 2 16.75967000 6.03600000 14.04220000
689 2 26.71662000 4.77862000 5.32439000
690 2 20.14932000 9.27664000 5.99260000
691 2 26.91092000 2.67373000 2.43477000
692 2 14.30948800 11.07810000 10.05150000
693 2 16.59535000 2.92393000 2.60385000
694 2 23.81422000 1.23573000 5.65597000
695 2 13.91500500 11.50040000 2.42367000
696 2 27.16712000 7.61522000 2.74174000
697 3 20.48021000 1.36477000 13.84460000
698 3 20.37163000 11.60360000 10.79310000
699 3 20.78953000 9.60436000 13.99370000
700 3 23.25380000 0.93835000 6.49701000
701 3 27.12992000 11.82090000 10.17120000
702 3 20.71565000 5.30034000 14.25350000
703 3 26.25252000 2.54057000 1.65673000
704 3 17.29012000 9.49122000 13.90600000
705 3 13.55694182 4.81790000 6.23605000
706 3 16.97012000 3.14731000 1.57655000
707 3 16.76504000 1.31074000 13.55460000
708 3 13.60803980 0.84350000 13.97430000
709 3 27.10592000 7.06957000 1.89155000
710 3 20.69643000 7.51803000 10.91510000
711 3 17.05673000 11.23210000 1.27394000
712 3 20.36337000 7.68182000 1.41140000
713 3 18.55824000 0.90405300 8.32671000
714 3 17.02845000 7.52616000 10.38370000
715 3 27.02132000 11.40110000 1.53679000
716 3 13.71769900 0.89762600 6.47385000
717 3 20.38852000 9.49737000 5.01859000
718 3 20.50406000 11.49050000 1.38773000
719 3 16.87483000 5.10500000 13.64970000
720 3 23.95072000 11.36380000 9.99051000
721 1 15.10526000 1.07660000 16.39148000
722 1 15.73182000 1.21444000 24.48051000
723 1 15.41256000 5.25233000 16.54521400
724 1 14.96226000 5.00330000 23.93869000
725 1 15.45971000 9.34109000 16.29962100
726 1 15.72379000 9.34583000 24.57263000
727 1 21.90781000 0.97026600 16.03510000
728 1 21.74140000 0.99483400 24.18615000
729 1 21.81330000 5.27319000 16.55271700
730 1 22.10440000 4.97113000 24.58708000
731 1 22.03022000 9.43396000 16.30486200
732 1 21.73668000 9.05646000 24.70078000
733 1 18.40566000 3.28355000 22.67457000
734 1 18.48119000 3.16617000 30.71072000
735 1 18.76463000 7.25745000 22.57030000
736 1 18.88009000 7.30958000 30.31802000
737 1 18.57978000 11.46870000 22.20232000
738 1 18.76326000 11.33460000 30.57252000
739 1 25.30262000 2.83358000 22.90889000
740 1 25.55052000 3.06628000 30.63182000
741 1 25.38462000 6.94983000 23.08293000
742 1 25.95182000 7.28230000 30.77622000
743 1 25.62942000 11.44180000 23.59077000
744 1 25.62442000 11.58810000 30.57092000
745 1 15.01524000 2.44359000 20.56463000
746 1 15.00467000 3.55079000 28.46252000
747 1 15.29233000 7.04057000 20.55435000
748 1 15.21349000 7.01252000 28.05832000
749 1 15.00119000 11.09690000 21.09810000
750 1 15.24841000 11.61830000 28.38412000
751 1 22.14184000 2.95083000 20.95798000
752 1 22.13640000 3.03400000 28.65932000
753 1 22.50755000 7.23146000 20.56579000
754 1 22.30591000 7.13758000 28.53722000
755 1 22.45264000 11.51530000 20.53413000
756 1 22.07193000 11.34230000 28.16372000
757 1 18.64568000 1.00183000 18.20927000
758 1 18.64324000 1.46104000 27.04292000
759 1 18.56656000 4.96149000 19.08845000
760 1 18.27979000 5.31953000 26.69872000
761 1 18.75358000 9.62655000 18.60776000
762 1 18.63901000 9.58319000 26.93202000
763 1 25.25992000 0.59077800 18.63909000
764 1 25.53982000 0.84073500 26.92842000
765 1 25.75262000 4.94001000 18.87771000
766 1 25.28262000 4.91940000 26.47262000
767 1 25.66902000 9.33576000 18.55184000
768 1 25.60232000 9.33729000 26.73722000
769 2 23.04812000 5.03523000 18.95501000
770 2 26.59282000 6.74177000 25.06754000
771 2 25.31072000 2.61554000 20.50678000
772 2 20.91711000 3.28898000 23.34995000
773 2 19.20594000 4.99246000 24.14607000
774 2 23.15067000 4.50454000 27.33022000
775 2 17.15830000 9.41936000 21.13268000
776 2 16.69271000 3.34341000 25.68017000
777 2 23.38230000 9.82624000 22.50151000
778 2 14.64835000 5.10251000 26.47822000
779 2 24.53012000 9.18334000 16.14892900
780 2 15.77313000 3.05330000 22.66994000
781 2 17.27876000 7.43078000 18.25990000
782 2 24.20832000 9.61960000 28.84522000
783 2 26.53402000 2.91185000 25.11577000
784 2 15.62601000 7.09999000 23.06348000
785 2 27.10592000 9.44394000 29.39622000
786 2 19.81993000 1.01665000 20.55799000
787 2 23.19944000 9.42055000 19.25121000
788 2 23.74272000 7.38397000 25.39228000
789 2 18.85466000 9.60109000 24.03951000
790 2 20.32806000 3.66957000 26.72902000
791 2 23.71502000 11.77920000 16.58880700
792 2 13.89874900 4.88638000 30.40602000
793 2 21.90753000 7.13071000 23.20249000
794 2 25.38802000 11.07210000 20.22504000
795 2 16.73753000 5.44794000 21.61603000
796 2 23.38293000 5.15391000 21.78314000
797 2 16.57424000 0.48190100 19.99476000
798 2 16.91304000 11.71370000 26.25012000
799 2 15.12966000 4.96532000 19.01882000
800 2 24.14332000 5.31012000 30.78342000
801 2 22.79516000 1.36662000 18.71648000
802 2 25.07002000 7.10162000 20.28191000
803 2 17.67018000 3.03640000 20.42016000
804 2 16.51896000 11.73190000 23.23000000
805 2 24.71602000 5.07908000 24.14515000
806 2 14.73855000 9.28679000 26.94732000
807 2 25.89862000 7.16194000 27.77442000
808 2 23.81612000 0.62646800 29.27012000
809 2 14.82343000 7.07019000 30.53322000
810 2 13.90670400 9.33065000 22.65171000
811 2 15.00171000 9.26537000 19.47188000
812 2 19.86540000 3.27931000 17.26671000
813 2 23.13432000 3.15897000 31.21242000
814 2 23.51193000 2.77392000 25.14775000
815 2 25.61792000 3.26171000 28.17832000
816 2 20.10758000 5.10501000 20.92799000
817 2 18.53804000 12.34650000 24.37906000
818 2 16.69451000 9.05377000 28.83652000
819 2 20.24428000 7.18844000 18.11429000
820 2 20.15810000 8.98395000 29.18722000
821 2 16.01682000 11.35750000 17.31865000
822 2 19.74336000 11.32180000 25.69582000
823 2 17.73748000 7.37707000 25.36853000
824 2 22.93060000 11.31530000 25.60355000
825 2 19.74519000 7.28377000 26.30722000
826 2 21.07825000 11.78830000 17.85504000
827 2 26.54142000 0.76091900 21.37018000
828 2 20.47455000 0.75840200 28.77332000
829 2 14.59558000 0.91026100 29.54782000
830 2 17.32028000 0.83136600 30.02732000
831 2 20.48979000 5.48261000 28.98932000
832 2 16.75967000 6.03600000 29.72862000
833 2 26.71662000 4.77862000 21.01081000
834 2 20.14932000 9.27664000 21.67902000
835 2 26.91092000 2.67373000 18.12119000
836 2 14.30948800 11.07810000 25.73792000
837 2 16.59535000 2.92393000 18.29027000
838 2 23.81422000 1.23573000 21.34239000
839 2 13.91500500 11.50040000 18.11009000
840 2 27.16712000 7.61522000 18.42816000
841 3 20.48021000 1.36477000 29.53102000
842 3 20.37163000 11.60360000 26.47952000
843 3 20.78953000 9.60436000 29.68012000
844 3 23.25380000 0.93835000 22.18343000
845 3 27.12992000 11.82090000 25.85762000
846 3 20.71565000 5.30034000 29.93992000
847 3 26.25252000 2.54057000 17.34315000
848 3 17.29012000 9.49122000 29.59242000
849 3 13.55694182 4.81790000 21.92247000
850 3 16.97012000 3.14731000 17.26297000
851 3 16.76504000 1.31074000 29.24102000
852 3 13.60803980 0.84350000 29.66072000
853 3 27.10592000 7.06957000 17.57797000
854 3 20.69643000 7.51803000 26.60152000
855 3 17.05673000 11.23210000 16.96036000
856 3 20.36337000 7.68182000 17.09782000
857 3 18.55824000 0.90405300 24.01313000
858 3 17.02845000 7.52616000 26.07012000
859 3 27.02132000 11.40110000 17.22321000
860 3 13.71769900 0.89762600 22.16027000
861 3 20.38852000 9.49737000 20.70501000
862 3 20.50406000 11.49050000 17.07415000
863 3 16.87483000 5.10500000 29.33612000
864 3 23.95072000 11.36380000 25.67693000
865 1 15.10526000 13.55813000 0.70506000
866 1 15.73182000 13.69597000 8.79409000
867 1 15.41256000 17.73386000 0.85879400
868 1 14.96226000 17.48483000 8.25227000
869 1 15.45971000 21.82262000 0.61320100
870 1 15.72379000 21.82736000 8.88621000
871 1 21.90781000 13.45179600 0.34868000
872 1 21.74140000 13.47636400 8.49973000
873 1 21.81330000 17.75472000 0.86629700
874 1 22.10440000 17.45266000 8.90066000
875 1 22.03022000 21.91549000 0.61844200
876 1 21.73668000 21.53799000 9.01436000
877 1 18.40566000 15.76508000 6.98815000
878 1 18.48119000 15.64770000 15.02430000
879 1 18.76463000 19.73898000 6.88388000
880 1 18.88009000 19.79111000 14.63160000
881 1 18.57978000 23.95023000 6.51590000
882 1 18.76326000 23.81613000 14.88610000
883 1 25.30262000 15.31511000 7.22247000
884 1 25.55052000 15.54781000 14.94540000
885 1 25.38462000 19.43136000 7.39651000
886 1 25.95182000 19.76383000 15.08980000
887 1 25.62942000 23.92333000 7.90435000
888 1 25.62442000 24.06963000 14.88450000
889 1 15.01524000 14.92512000 4.87821000
890 1 15.00467000 16.03232000 12.77610000
891 1 15.29233000 19.52210000 4.86793000
892 1 15.21349000 19.49405000 12.37190000
893 1 15.00119000 23.57843000 5.41168000
894 1 15.24841000 24.09983000 12.69770000
895 1 22.14184000 15.43236000 5.27156000
896 1 22.13640000 15.51553000 12.97290000
897 1 22.50755000 19.71299000 4.87937000
898 1 22.30591000 19.61911000 12.85080000
899 1 22.45264000 23.99683000 4.84771000
900 1 22.07193000 23.82383000 12.47730000
901 1 18.64568000 13.48336000 2.52285000
902 1 18.64324000 13.94257000 11.35650000
903 1 18.56656000 17.44302000 3.40203000
904 1 18.27979000 17.80106000 11.01230000
905 1 18.75358000 22.10808000 2.92134000
906 1 18.63901000 22.06472000 11.24560000
907 1 25.25992000 13.07230800 2.95267000
908 1 25.53982000 13.32226500 11.24200000
909 1 25.75262000 17.42154000 3.19129000
910 1 25.28262000 17.40093000 10.78620000
911 1 25.66902000 21.81729000 2.86542000
912 1 25.60232000 21.81882000 11.05080000
913 2 23.04812000 17.51676000 3.26859000
914 2 26.59282000 19.22330000 9.38112000
915 2 25.31072000 15.09707000 4.82036000
916 2 20.91711000 15.77051000 7.66353000
917 2 19.20594000 17.47399000 8.45965000
918 2 23.15067000 16.98607000 11.64380000
919 2 17.15830000 21.90089000 5.44626000
920 2 16.69271000 15.82494000 9.99375000
921 2 23.38230000 22.30777000 6.81509000
922 2 14.64835000 17.58404000 10.79180000
923 2 24.53012000 21.66487000 0.46250900
924 2 15.77313000 15.53483000 6.98352000
925 2 17.27876000 19.91231000 2.57348000
926 2 24.20832000 22.10113000 13.15880000
927 2 26.53402000 15.39338000 9.42935000
928 2 15.62601000 19.58152000 7.37706000
929 2 27.10592000 21.92547000 13.70980000
930 2 19.81993000 13.49818000 4.87157000
931 2 23.19944000 21.90208000 3.56479000
932 2 23.74272000 19.86550000 9.70586000
933 2 18.85466000 22.08262000 8.35309000
934 2 20.32806000 16.15110000 11.04260000
935 2 23.71502000 24.26073000 0.90238700
936 2 13.89874900 17.36791000 14.71960000
937 2 21.90753000 19.61224000 7.51607000
938 2 25.38802000 23.55363000 4.53862000
939 2 16.73753000 17.92947000 5.92961000
940 2 23.38293000 17.63544000 6.09672000
941 2 16.57424000 12.96343100 4.30834000
942 2 16.91304000 24.19523000 10.56370000
943 2 15.12966000 17.44685000 3.33240000
944 2 24.14332000 17.79165000 15.09700000
945 2 22.79516000 13.84815000 3.03006000
946 2 25.07002000 19.58315000 4.59549000
947 2 17.67018000 15.51793000 4.73374000
948 2 16.51896000 24.21343000 7.54358000
949 2 24.71602000 17.56061000 8.45873000
950 2 14.73855000 21.76832000 11.26090000
951 2 25.89862000 19.64347000 12.08800000
952 2 23.81612000 13.10799800 13.58370000
953 2 14.82343000 19.55172000 14.84680000
954 2 13.90670400 21.81218000 6.96529000
955 2 15.00171000 21.74690000 3.78546000
956 2 19.86540000 15.76084000 1.58029000
957 2 23.13432000 15.64050000 15.52600000
958 2 23.51193000 15.25545000 9.46133000
959 2 25.61792000 15.74324000 12.49190000
960 2 20.10758000 17.58654000 5.24157000
961 2 18.53804000 24.82803000 8.69264000
962 2 16.69451000 21.53530000 13.15010000
963 2 20.24428000 19.66997000 2.42787000
964 2 20.15810000 21.46548000 13.50080000
965 2 16.01682000 23.83903000 1.63223000
966 2 19.74336000 23.80333000 10.00940000
967 2 17.73748000 19.85860000 9.68211000
968 2 22.93060000 23.79683000 9.91713000
969 2 19.74519000 19.76530000 10.62080000
970 2 21.07825000 24.26983000 2.16862000
971 2 26.54142000 13.24244900 5.68376000
972 2 20.47455000 13.23993200 13.08690000
973 2 14.59558000 13.39179100 13.86140000
974 2 17.32028000 13.31289600 14.34090000
975 2 20.48979000 17.96414000 13.30290000
976 2 16.75967000 18.51753000 14.04220000
977 2 26.71662000 17.26015000 5.32439000
978 2 20.14932000 21.75817000 5.99260000
979 2 26.91092000 15.15526000 2.43477000
980 2 14.30948800 23.55963000 10.05150000
981 2 16.59535000 15.40546000 2.60385000
982 2 23.81422000 13.71726000 5.65597000
983 2 13.91500500 23.98193000 2.42367000
984 2 27.16712000 20.09675000 2.74174000
985 3 20.48021000 13.84630000 13.84460000
986 3 20.37163000 24.08513000 10.79310000
987 3 20.78953000 22.08589000 13.99370000
988 3 23.25380000 13.41988000 6.49701000
989 3 27.12992000 24.30243000 10.17120000
990 3 20.71565000 17.78187000 14.25350000
991 3 26.25252000 15.02210000 1.65673000
992 3 17.29012000 21.97275000 13.90600000
993 3 13.55694182 17.29943000 6.23605000
994 3 16.97012000 15.62884000 1.57655000
995 3 16.76504000 13.79227000 13.55460000
996 3 13.60803980 13.32503000 13.97430000
997 3 27.10592000 19.55110000 1.89155000
998 3 20.69643000 19.99956000 10.91510000
999 3 17.05673000 23.71363000 1.27394000
1000 3 20.36337000 20.16335000 1.41140000
1001 3 18.55824000 13.38558300 8.32671000
1002 3 17.02845000 20.00769000 10.38370000
1003 3 27.02132000 23.88263000 1.53679000
1004 3 13.71769900 13.37915600 6.47385000
1005 3 20.38852000 21.97890000 5.01859000
1006 3 20.50406000 23.97203000 1.38773000
1007 3 16.87483000 17.58653000 13.64970000
1008 3 23.95072000 23.84533000 9.99051000
1009 1 15.10526000 13.55813000 16.39148000
1010 1 15.73182000 13.69597000 24.48051000
1011 1 15.41256000 17.73386000 16.54521400
1012 1 14.96226000 17.48483000 23.93869000
1013 1 15.45971000 21.82262000 16.29962100
1014 1 15.72379000 21.82736000 24.57263000
1015 1 21.90781000 13.45179600 16.03510000
1016 1 21.74140000 13.47636400 24.18615000
1017 1 21.81330000 17.75472000 16.55271700
1018 1 22.10440000 17.45266000 24.58708000
1019 1 22.03022000 21.91549000 16.30486200
1020 1 21.73668000 21.53799000 24.70078000
1021 1 18.40566000 15.76508000 22.67457000
1022 1 18.48119000 15.64770000 30.71072000
1023 1 18.76463000 19.73898000 22.57030000
1024 1 18.88009000 19.79111000 30.31802000
1025 1 18.57978000 23.95023000 22.20232000
1026 1 18.76326000 23.81613000 30.57252000
1027 1 25.30262000 15.31511000 22.90889000
1028 1 25.55052000 15.54781000 30.63182000
1029 1 25.38462000 19.43136000 23.08293000
1030 1 25.95182000 19.76383000 30.77622000
1031 1 25.62942000 23.92333000 23.59077000
1032 1 25.62442000 24.06963000 30.57092000
1033 1 15.01524000 14.92512000 20.56463000
1034 1 15.00467000 16.03232000 28.46252000
1035 1 15.29233000 19.52210000 20.55435000
1036 1 15.21349000 19.49405000 28.05832000
1037 1 15.00119000 23.57843000 21.09810000
1038 1 15.24841000 24.09983000 28.38412000
1039 1 22.14184000 15.43236000 20.95798000
1040 1 22.13640000 15.51553000 28.65932000
1041 1 22.50755000 19.71299000 20.56579000
1042 1 22.30591000 19.61911000 28.53722000
1043 1 22.45264000 23.99683000 20.53413000
1044 1 22.07193000 23.82383000 28.16372000
1045 1 18.64568000 13.48336000 18.20927000
1046 1 18.64324000 13.94257000 27.04292000
1047 1 18.56656000 17.44302000 19.08845000
1048 1 18.27979000 17.80106000 26.69872000
1049 1 18.75358000 22.10808000 18.60776000
1050 1 18.63901000 22.06472000 26.93202000
1051 1 25.25992000 13.07230800 18.63909000
1052 1 25.53982000 13.32226500 26.92842000
1053 1 25.75262000 17.42154000 18.87771000
1054 1 25.28262000 17.40093000 26.47262000
1055 1 25.66902000 21.81729000 18.55184000
1056 1 25.60232000 21.81882000 26.73722000
1057 2 23.04812000 17.51676000 18.95501000
1058 2 26.59282000 19.22330000 25.06754000
1059 2 25.31072000 15.09707000 20.50678000
1060 2 20.91711000 15.77051000 23.34995000
1061 2 19.20594000 17.47399000 24.14607000
1062 2 23.15067000 16.98607000 27.33022000
1063 2 17.15830000 21.90089000 21.13268000
1064 2 16.69271000 15.82494000 25.68017000
1065 2 23.38230000 22.30777000 22.50151000
1066 2 14.64835000 17.58404000 26.47822000
1067 2 24.53012000 21.66487000 16.14892900
1068 2 15.77313000 15.53483000 22.66994000
1069 2 17.27876000 19.91231000 18.25990000
1070 2 24.20832000 22.10113000 28.84522000
1071 2 26.53402000 15.39338000 25.11577000
1072 2 15.62601000 19.58152000 23.06348000
1073 2 27.10592000 21.92547000 29.39622000
1074 2 19.81993000 13.49818000 20.55799000
1075 2 23.19944000 21.90208000 19.25121000
1076 2 23.74272000 19.86550000 25.39228000
1077 2 18.85466000 22.08262000 24.03951000
1078 2 20.32806000 16.15110000 26.72902000
1079 2 23.71502000 24.26073000 16.58880700
1080 2 13.89874900 17.36791000 30.40602000
1081 2 21.90753000 19.61224000 23.20249000
1082 2 25.38802000 23.55363000 20.22504000
1083 2 16.73753000 17.92947000 21.61603000
1084 2 23.38293000 17.63544000 21.78314000
1085 2 16.57424000 12.96343100 19.99476000
1086 2 16.91304000 24.19523000 26.25012000
1087 2 15.12966000 17.44685000 19.01882000
1088 2 24.14332000 17.79165000 30.78342000
1089 2 22.79516000 13.84815000 18.71648000
1090 2 25.07002000 19.58315000 20.28191000
1091 2 17.67018000 15.51793000 20.42016000
1092 2 16.51896000 24.21343000 23.23000000
1093 2 24.71602000 17.56061000 24.14515000
1094 2 14.73855000 21.76832000 26.94732000
1095 2 25.89862000 19.64347000 27.77442000
1096 2 23.81612000 13.10799800 29.27012000
1097 2 14.82343000 19.55172000 30.53322000
1098 2 13.90670400 21.81218000 22.65171000
1099 2 15.00171000 21.74690000 19.47188000
1100 2 19.86540000 15.76084000 17.26671000
1101 2 23.13432000 15.64050000 31.21242000
1102 2 23.51193000 15.25545000 25.14775000
1103 2 25.61792000 15.74324000 28.17832000
1104 2 20.10758000 17.58654000 20.92799000
1105 2 18.53804000 24.82803000 24.37906000
1106 2 16.69451000 21.53530000 28.83652000
1107 2 20.24428000 19.66997000 18.11429000
1108 2 20.15810000 21.46548000 29.18722000
1109 2 16.01682000 23.83903000 17.31865000
1110 2 19.74336000 23.80333000 25.69582000
1111 2 17.73748000 19.85860000 25.36853000
1112 2 22.93060000 23.79683000 25.60355000
1113 2 19.74519000 19.76530000 26.30722000
1114 2 21.07825000 24.26983000 17.85504000
1115 2 26.54142000 13.24244900 21.37018000
1116 2 20.47455000 13.23993200 28.77332000
1117 2 14.59558000 13.39179100 29.54782000
1118 2 17.32028000 13.31289600 30.02732000
1119 2 20.48979000 17.96414000 28.98932000
1120 2 16.75967000 18.51753000 29.72862000
1121 2 26.71662000 17.26015000 21.01081000
1122 2 20.14932000 21.75817000 21.67902000
1123 2 26.91092000 15.15526000 18.12119000
1124 2 14.30948800 23.55963000 25.73792000
1125 2 16.59535000 15.40546000 18.29027000
1126 2 23.81422000 13.71726000 21.34239000
1127 2 13.91500500 23.98193000 18.11009000
1128 2 27.16712000 20.09675000 18.42816000
1129 3 20.48021000 13.84630000 29.53102000
1130 3 20.37163000 24.08513000 26.47952000
1131 3 20.78953000 22.08589000 29.68012000
1132 3 23.25380000 13.41988000 22.18343000
1133 3 27.12992000 24.30243000 25.85762000
1134 3 20.71565000 17.78187000 29.93992000
1135 3 26.25252000 15.02210000 17.34315000
1136 3 17.29012000 21.97275000 29.59242000
1137 3 13.55694182 17.29943000 21.92247000
1138 3 16.97012000 15.62884000 17.26297000
1139 3 16.76504000 13.79227000 29.24102000
1140 3 13.60803980 13.32503000 29.66072000
1141 3 27.10592000 19.55110000 17.57797000
1142 3 20.69643000 19.99956000 26.60152000
1143 3 17.05673000 23.71363000 16.96036000
1144 3 20.36337000 20.16335000 17.09782000
1145 3 18.55824000 13.38558300 24.01313000
1146 3 17.02845000 20.00769000 26.07012000
1147 3 27.02132000 23.88263000 17.22321000
1148 3 13.71769900 13.37915600 22.16027000
1149 3 20.38852000 21.97890000 20.70501000
1150 3 20.50406000 23.97203000 17.07415000
1151 3 16.87483000 17.58653000 29.33612000
1152 3 23.95072000 23.84533000 25.67693000
