# LAMMPS data file
756 atoms
3 atom types
0.0 32.39794198551478 xlo xhi
0.0 23.64774 ylo yhi
0.0 77.32469402918946 zlo zhi

Atoms # atomic

1 1 5.07362 3.05499 31.4383
2 1 8.95332 4.82759 30
3 1 10.4733 0.8863 31.4383
4 1 3.55366 6.99628 30
5 2 6.08428 5.36421 30.2063
6 2 7.94266 2.51837 31.232
7 2 0.68463 6.45966 30.2063
8 2 2.543 1.42292 31.232
9 2 8.45027 7.31804 30.6132
10 2 5.57668 0.56454 30.8251
11 2 3.05061 4.50583 30.6132
12 2 0.17702 3.37675 30.8251
13 1 8.30125 3.05499 34.086
14 1 1.38163 4.82759 32.6477
15 1 2.90159 0.8863 34.086
16 1 6.78129 6.99628 32.6477
17 2 9.31191 5.36421 32.854
18 2 0.37097 2.51837 33.8797
19 2 3.91225 6.45966 32.854
20 2 5.77063 1.42292 33.8797
21 2 0.87858 7.31804 33.261
22 2 8.8043 0.56454 33.4728
23 2 6.27824 4.50583 33.261
24 2 3.40464 3.37675 33.4728
25 1 0.731286 3.19295 36.9566
26 1 4.75436 4.67847 35.3441
27 1 6.2846 0.859824 36.9192
28 1 10.0224 6.99721 35.2021
29 2 19.0703 13.7543 41.3614
30 2 30.2075 20.8673 44.0283
31 2 13.6698 14.0986 41.0798
32 2 17.0722 21.227 43.7376
33 2 4.70162 7.23979 35.5506
34 2 18.0423 15.5513 39.146
35 2 4.81763 13.2709 38.0734
36 2 3.31188 7.3975 44.6156
37 1 3.82017 3.16642 39.7447
38 1 7.61352 4.83973 37.8124
39 1 9.75817 0.501841 39.2555
40 1 2.00987 7.11924 37.8441
41 2 14.9862 8.51658 39.2862
42 2 31.2508 20.1663 35.5105
43 2 12.7064 20.0559 38.4358
44 2 16.8918 6.16221 44.1525
45 2 11.8433 10.0102 39.3576
46 2 28.8856 7.73042 46.3818
47 2 28.5714 6.40658 35.8145
48 2 7.1968 6.19598 35.3953
49 1 7.50095 3.5356 42.1792
50 1 0.117538 5.09808 41.0103
51 1 1.81551 0.758646 42.3651
52 1 5.37304 7.01186 40.832
53 2 10.697 2.8444 41.9217
54 2 10.1206 3.33671 38.745
55 2 27.491 21.9583 43.5512
56 2 22.5057 9.82133 48.2064
57 2 13.5746 2.42757 44.917
58 2 9.84137 10.2859 41.754
59 2 5.49445 4.54351 41.4779
60 2 31.5711 2.89673 42.0701
61 1 10.7522 3.19284 44.5906
62 1 3.19578 4.79375 43.8549
63 1 2.93677 2.9649 47.5167
64 1 8.75617 7.11825 43.4112
65 2 18.4035 14.7641 45.2854
66 2 22.0416 16.4881 44.7217
67 2 28.6508 14.5364 35.5209
68 2 23.2653 5.57433 35.7118
69 2 1.81966 4.59466 39.1087
70 2 24.4161 1.04264 46.5931
71 2 10.5615 14.3719 37.9012
72 1 21.3364 19.8432 48.7549
73 1 7.01323 4.51125 46.3012
74 1 5.52036 0.75907 44.9397
75 1 5.37614 8.66085 44.9898
76 2 13.1947 15.7908 45.1553
77 2 15.4161 0.860588 38.9468
78 2 4.56887 0.483904 38.676
79 2 10.8095 22.6271 41.5244
80 2 26.111 1.39702 42.1132
81 2 5.26679 21.7969 37.907
82 2 1.5989 20.6343 45.6328
83 2 13.2001 3.5284 41.6512
84 1 5.07362 10.9376 31.4383
85 1 8.95332 12.7102 30
86 1 10.4733 8.76888 31.4383
87 1 3.55366 14.8789 30
88 2 6.08428 13.2468 30.2063
89 2 7.94266 10.401 31.232
90 2 0.68463 14.3422 30.2063
91 2 2.543 9.3055 31.232
92 2 8.45027 15.2006 30.6132
93 2 5.57668 8.44712 30.8251
94 2 3.05061 12.3884 30.6132
95 2 0.17702 11.2593 30.8251
96 1 8.30125 10.9376 34.086
97 1 1.38163 12.7102 32.6477
98 1 2.90159 8.76888 34.086
99 1 6.78129 14.8789 32.6477
100 2 9.31191 13.2468 32.854
101 2 0.37097 10.401 33.8797
102 2 3.91225 14.3422 32.854
103 2 5.77063 9.3055 33.8797
104 2 0.87858 15.2006 33.261
105 2 8.8043 8.44712 33.4728
106 2 6.27824 12.3884 33.261
107 2 3.40464 11.2593 33.4728
108 1 0.787629 10.9792 36.8916
109 1 4.55202 12.6142 35.3101
110 1 6.04488 8.67736 36.9561
111 1 10.0063 14.9654 35.3981
112 2 9.05171 17.4656 36.5253
113 2 32.0028 17.1818 46.7312
114 2 25.2988 15.2083 36.1315
115 2 24.8713 15.8921 44.3174
116 2 31.5565 18.9098 39.1186
117 2 15.5594 18.5308 44.4497
118 2 26.2079 9.44405 42.5304
119 1 3.82874 11.048 39.6406
120 1 7.62034 12.5935 37.9976
121 1 9.2438 8.55623 39.5463
122 1 2.57562 15.1448 37.8759
123 2 27.2613 3.3946 43.8938
124 2 19.4611 12.7263 44.028
125 2 16.543 13.9704 47.8455
126 2 11.9902 16.9518 39.3676
127 2 21.1346 23.1754 42.2152
128 2 26.6657 12.0179 49.8132
129 2 15.5044 2.0274 41.632
130 2 28.4324 2.11561 38.9911
131 1 7.22046 11.1121 42.0082
132 1 0.282665 12.9486 40.5908
133 1 2.03655 8.59417 42.725
134 1 5.58462 15.0746 40.4871
135 2 4.21315 23.3597 36.1296
136 2 8.01459 10.0554 44.4765
137 2 20.6343 10.4037 41.7329
138 2 12.6972 12.1715 38.5521
139 2 29.018 15.3368 38.5514
140 2 12.1417 15.8466 35.7771
141 2 14.5182 18.2573 36.9422
142 2 1.9458 12.7964 38.7854
143 1 10.89 10.844 44.9293
144 1 3.18033 12.5977 43.632
145 1 9.20791 8.4761 47.5199
146 1 9.00117 15.4669 43.5485
147 2 19.5997 17.4775 36.9568
148 2 27.7326 14.2112 43.3489
149 2 6.99165 9.87998 47.9487
150 2 27.6559 6.1481 43.9893
151 2 18.6758 1.71127 45.8725
152 2 29.4978 9.8201 44.9952
153 2 7.37067 8.41724 41.2996
154 2 19.6228 9.53579 36.1732
155 1 7.58994 12.2223 46.2654
156 1 32.0782 3.58104 44.9544
157 1 13.8609 3.02504 47.464
158 1 1.85511 15.8488 46.1979
159 2 24.9177 2.96851 45.223
160 2 2.58966 20.6542 38.8071
161 2 24.2076 11.0251 41.2837
162 2 8.38634 5.71811 41.3309
163 2 31.3462 12.3416 36.1056
164 2 2.71289 10.2508 44.6995
165 2 29.6076 20.8185 40.772
166 2 30.0931 17.8885 36.4466
167 1 5.07362 18.8201 31.4383
168 1 8.95332 20.5928 30
169 1 10.4733 16.6515 31.4383
170 1 3.55366 22.7614 30
171 2 6.08428 21.1294 30.2063
172 2 7.94266 18.2835 31.232
173 2 0.68463 22.2248 30.2063
174 2 2.543 17.1881 31.232
175 2 8.45027 23.0832 30.6132
176 2 5.57668 16.3297 30.8251
177 2 3.05061 20.271 30.6132
178 2 0.17702 19.1419 30.8251
179 1 8.30125 18.8201 34.086
180 1 1.38163 20.5928 32.6477
181 1 2.90159 16.6515 34.086
182 1 6.78129 22.7614 32.6477
183 2 9.31191 21.1294 32.854
184 2 0.37097 18.2835 33.8797
185 2 3.91225 22.2248 32.854
186 2 5.77063 17.1881 33.8797
187 2 0.87858 23.0832 33.261
188 2 8.8043 16.3297 33.4728
189 2 6.27824 20.271 33.261
190 2 3.40464 19.1419 33.4728
191 1 0.819064 18.9934 36.9662
192 1 4.61515 20.7884 35.3804
193 1 6.02375 16.7149 36.7437
194 1 9.99206 22.5815 35.4008
195 2 1.39776 0.697146 36.0355
196 2 23.1253 4.43729 46.0505
197 2 22.8152 12.8422 46.641
198 2 21.2433 2.94651 42.4946
199 2 6.61282 19.2232 36.291
200 2 1.41151 16.7074 36.1812
201 2 2.46657 3.51634 41.7535
202 2 28.791 23.1939 38.9992
203 1 4.26088 19.2291 39.727
204 1 7.92567 20.6256 38.1053
205 1 9.36441 16.6735 39.5831
206 1 2.46791 22.9861 37.9759
207 2 8.18124 21.2397 40.7343
208 2 26.4329 5.53155 37.7619
209 2 15.7193 20.2129 41.1349
210 2 17.7447 10.2987 39.6131
211 2 7.1031 15.2085 38.5126
212 2 8.7703 4.48377 44.3437
213 2 13.42 13.1446 46.1951
214 2 26.2721 13.6534 38.4287
215 1 7.24096 18.9153 42.1774
216 1 32.2677 20.7409 41.3131
217 1 2.1772 16.5828 42.067
218 1 6.08495 23.1006 40.7965
219 2 4.45283 9.41856 42.0238
220 2 12.5305 16.1817 48.1821
221 2 8.37418 0.599527 41.6684
222 2 9.27921 1.4216 36.6556
223 2 9.69192 11.0843 39.4888
224 2 3.83286 2.66933 36.9479
225 2 24.7072 6.57093 40.9089
226 2 14.7449 15.1128 36.0919
227 1 5.59604 16.6174 45.2932
228 1 3.46919 20.6466 43.7786
229 1 9.61885 19.0027 45.3444
230 1 9.09082 22.6107 43.5173
231 2 21.7593 15.4781 40.9338
232 2 26.1703 21.0537 38.0459
233 2 28.2495 10.6659 39.5096
234 2 0.362484 16.6334 44.1324
235 2 20.2884 12.5031 36.252
236 2 8.5457 8.36998 36.8355
237 2 9.9124 4.53823 35.6187
238 2 6.58424 2.03554 39.4682
239 1 26.2926 14.6063 49.6104
240 1 18.7141 16.1877 47.8515
241 1 11.2471 14.6397 46.516
242 1 1.19173 23.1974 46.1649
243 2 17.1625 11.2019 36.1138
244 2 25.8678 8.41037 39.1287
245 2 14.4939 12.5758 49.9128
246 2 28.7338 18.0047 39.4472
247 2 0.633407 13.5583 43.0009
248 2 31.4855 11.5163 38.8517
249 2 14.7973 20.7769 45.8192
250 1 15.8729 3.05499 31.4383
251 1 19.7526 4.82759 30
252 1 21.2726 0.8863 31.4383
253 1 14.353 6.99628 30
254 2 16.8836 5.36421 30.2063
255 2 18.742 2.51837 31.232
256 2 11.4839 6.45966 30.2063
257 2 13.3423 1.42292 31.232
258 2 19.2496 7.31804 30.6132
259 2 16.376 0.56454 30.8251
260 2 13.8499 4.50583 30.6132
261 2 10.9763 3.37675 30.8251
262 1 19.1006 3.05499 34.086
263 1 12.1809 4.82759 32.6477
264 1 13.7009 0.8863 34.086
265 1 17.5806 6.99628 32.6477
266 2 20.1112 5.36421 32.854
267 2 11.1703 2.51837 33.8797
268 2 14.7116 6.45966 32.854
269 2 16.5699 1.42292 33.8797
270 2 11.6779 7.31804 33.261
271 2 19.6036 0.56454 33.4728
272 2 17.0775 4.50583 33.261
273 2 14.204 3.37675 33.4728
274 1 11.7612 3.08341 36.5712
275 1 15.333 4.72766 35.6679
276 1 16.8504 0.873219 36.8473
277 1 20.6544 7.13154 35.2816
278 2 11.7032 6.14843 43.5367
279 2 7.81572 7.33188 45.841
280 2 14.869 7.90116 36.3849
281 2 2.94668 17.8063 44.9051
282 2 10.584 0.793268 44.3792
283 2 6.84501 14.246 44.1901
284 2 0.168222 0.864272 44.186
285 2 28.3458 15.4573 49.0217
286 1 14.8227 3.61702 39.7398
287 1 18.8632 4.90459 38.2674
288 1 20.4726 0.707826 39.7674
289 1 13.1833 7.42764 38.001
290 2 4.64588 16.5772 38.7414
291 2 22.4909 12.5872 43.2496
292 2 26.343 13.6935 46.5036
293 2 0.0230024 15.4773 40.9232
294 2 23.0962 9.06842 39.6538
295 2 12.2693 1.34025 38.9527
296 2 3.55077 18.3783 37.2258
297 2 14.0977 0.541649 47.3406
298 1 18.0489 3.39741 42.8182
299 1 11.0941 4.68986 40.3732
300 1 12.7556 0.950958 42.2186
301 1 16.3746 7.1245 41.0432
302 2 1.7502 19.3007 41.9892
303 3 28.2089 19.4424 48.3156
304 2 3.35147 22.1881 41.3983
305 2 7.27789 16.6003 41.7749
306 2 16.5494 2.6136 48.2337
307 2 0.181405 1.36118 47.6629
308 2 30.851 1.48909 36.5465
309 2 31.9632 21.5752 38.9525
310 1 21.1154 3.03609 46.233
311 1 14.4678 4.5211 43.7886
312 1 15.7084 0.11819 45.1731
313 1 19.8164 7.12083 43.9176
314 2 24.5515 7.94408 44.6371
315 2 18.4181 7.43615 38.9725
316 2 20.2559 22.4141 48.8059
317 2 26.2686 17.6061 41.4266
318 2 6.97063 3.20951 36.2046
319 2 30.3009 12.3833 44.1838
320 2 17.8946 0.556927 43.3944
321 1 15.0804 15.3526 49.0771
322 1 17.448 5.10254 46.7731
323 1 23.2478 22.4811 46.8964
324 1 12.2334 6.84304 45.9925
325 2 8.03844 13.7143 40.9758
326 2 20.3788 18.2178 42.4278
327 2 32.2933 7.63466 41.6897
328 2 21.0094 6.63189 38.77
329 2 4.89348 1.6762 42.4995
330 2 19.0981 20.876 40.5686
331 2 5.59253 2.94078 47.8633
332 2 18.647 10.1448 44.9336
333 1 15.8729 10.9376 31.4383
334 1 19.7526 12.7102 30
335 1 21.2726 8.76888 31.4383
336 1 14.353 14.8789 30
337 2 16.8836 13.2468 30.2063
338 2 18.742 10.401 31.232
339 2 11.4839 14.3422 30.2063
340 2 13.3423 9.3055 31.232
341 2 19.2496 15.2006 30.6132
342 2 16.376 8.44712 30.8251
343 2 13.8499 12.3884 30.6132
344 2 10.9763 11.2593 30.8251
345 1 19.1006 10.9376 34.086
346 1 12.1809 12.7102 32.6477
347 1 13.7009 8.76888 34.086
348 1 17.5806 14.8789 32.6477
349 2 20.1112 13.2468 32.854
350 2 11.1703 10.401 33.8797
351 2 14.7116 14.3422 32.854
352 2 16.5699 9.3055 33.8797
353 2 11.6779 15.2006 33.261
354 2 19.6036 8.44712 33.4728
355 2 17.0775 12.3884 33.261
356 2 14.204 11.2593 33.4728
357 1 11.2702 11.0909 36.9194
358 1 15.1422 12.6735 35.2697
359 1 16.8674 8.75631 37.1664
360 1 20.5426 15.1184 35.4815
361 2 6.95696 14.5075 35.7073
362 2 20.3926 4.67308 36.2547
363 2 15.9657 4.75038 41.6487
364 2 5.83672 11.0828 44.6873
365 2 13.1185 4.69259 38.2889
366 2 10.0489 19.2488 38.392
367 2 17.99 14.3792 35.9637
368 2 3.51079 0.464699 47.2359
369 1 14.5662 11.1099 39.9277
370 1 18.5094 12.9829 38.0989
371 1 20.305 9.12597 39.2431
372 1 13.029 14.6795 38.1238
373 2 30.0115 13.7747 40.7742
374 2 4.25897 15.1917 35.6044
375 2 17.8825 3.26062 36.2233
376 2 24.397 21.7766 41.2638
377 2 5.22735 12.2528 41.516
378 2 7.95285 2.34233 44.7437
379 2 25.8267 7.40698 35.7778
380 2 28.1999 11.2495 36.2926
381 1 18.2473 11.2392 42.2667
382 1 10.72 12.6229 41.1895
383 1 12.4569 8.34566 42.1229
384 1 16.5801 14.9585 41.0399
385 2 12.3066 23.6952 36.1181
386 2 17.7713 22.777 46.6971
387 2 13.1306 21.7502 41.1037
388 2 11.5279 13.7671 43.5844
389 2 6.0568 19.5775 44.1811
390 2 12.7397 20.9087 35.2563
391 2 7.84831 17.6001 44.3847
392 2 32.2793 10.0642 43.0947
393 1 21.2611 11.4049 45.0089
394 1 13.7741 12.613 43.4658
395 1 16.1512 8.65989 44.5481
396 1 19.9584 15.3338 43.1711
397 2 3.19573 15.3386 44.0163
398 2 16.4193 3.20898 44.7991
399 2 21.7224 1.12163 48.1294
400 2 22.9817 1.15979 39.7407
401 2 25.9472 0.585345 39.0019
402 2 9.72863 21.6296 45.496
403 2 15.68 13.3194 38.3951
404 3 27.4612 2.76857 47.7102
405 1 13.7976 11.1543 47.731
406 1 17.4943 12.4434 45.7279
407 1 19.209 9.07954 47.4766
408 1 17.4703 12.2497 49.6356
409 2 1.14544 8.80138 35.9218
410 2 20.1076 1.88543 36.0826
411 2 30.3007 9.37188 36.2787
412 2 20.5675 21.0396 46.6124
413 2 1.1675 9.35783 39.1151
414 2 3.52792 22.8824 44.8361
415 2 21.5693 0.801838 45.0671
416 2 29.1994 15.5542 46.2782
417 1 15.8729 18.8201 31.4383
418 1 19.7526 20.5928 30
419 1 21.2726 16.6515 31.4383
420 1 14.353 22.7614 30
421 2 16.8836 21.1294 30.2063
422 2 18.742 18.2835 31.232
423 2 11.4839 22.2248 30.2063
424 2 13.3423 17.1881 31.232
425 2 19.2496 23.0832 30.6132
426 2 16.376 16.3297 30.8251
427 2 13.8499 20.271 30.6132
428 2 10.9763 19.1419 30.8251
429 1 19.1006 18.8201 34.086
430 1 12.1809 20.5928 32.6477
431 1 13.7009 16.6515 34.086
432 1 17.5806 22.7614 32.6477
433 2 20.1112 21.1294 32.854
434 2 11.1703 18.2835 33.8797
435 2 14.7116 22.2248 32.854
436 2 16.5699 17.1881 33.8797
437 2 11.6779 23.0832 33.261
438 2 19.6036 16.3297 33.4728
439 2 17.0775 20.271 33.261
440 2 14.204 19.1419 33.4728
441 1 11.4757 18.9073 36.5907
442 1 15.6426 20.8969 35.0615
443 1 17.0194 16.7963 37.0497
444 1 20.7628 22.7716 34.9901
445 2 3.35569 10.4418 36.8885
446 2 15.2341 16.3401 39.0659
447 2 14.9106 23.3586 35.6014
448 2 22.1448 21.3619 44.1544
449 2 31.1 3.56003 39.1372
450 2 32.1798 0.0398253 41.2587
451 2 4.52284 3.31379 45.7267
452 2 23.9836 3.4897 41.7312
453 1 14.738 18.5648 39.661
454 1 18.5681 20.7158 38.0218
455 1 19.9331 16.9036 39.6382
456 1 13.4611 22.6691 38.457
457 2 21.0506 14.7 38.1858
458 2 10.6706 21.6484 38.2506
459 2 15.5058 9.39662 42.3353
460 2 19.7233 10.5228 50.0143
461 2 13.9857 10.2985 36.0349
462 2 0.752693 6.48794 44.0449
463 2 4.88178 5.88736 46.0046
464 2 25.7999 23.112 36.0682
465 1 17.8518 19.1621 42.4348
466 1 11.1137 20.2872 40.5718
467 1 12.7533 16.5946 42.3049
468 1 16.7455 23.2782 41.1224
469 2 26.7157 12.3724 41.2302
470 2 16.03 12.5873 41.3675
471 2 26.4115 20.1731 41.5935
472 2 18.4653 16.1975 41.7104
473 2 27.1961 11.903 44.4235
474 2 20.5308 20.4147 35.6584
475 2 22.3386 6.25871 43.5364
476 2 27.7895 10.7011 47.3315
477 1 21.1672 18.8636 45.1502
478 1 14.0511 20.4864 43.4418
479 1 15.924 16.0825 44.9778
480 1 19.6819 22.7168 44.333
481 2 11.5645 2.05937 47.1488
482 2 10.7625 7.26241 41.0872
483 2 18.0186 6.5321 36.1498
484 2 19.2075 4.85053 44.9207
485 2 29.1194 0.783284 41.8317
486 2 15.8986 13.8406 44.3766
487 2 12.5211 4.32928 45.6956
488 2 24.0121 20.8867 49.1576
489 1 13.2291 18.3867 46.3751
490 1 17.3396 19.6687 46.4106
491 1 21.5861 12.2701 49.3133
492 1 11.8274 23.1705 46.1795
493 2 19.4401 3.78203 48.009
494 2 7.64458 22.9875 38.5842
495 2 4.13955 14.9725 46.9016
496 2 29.1576 8.78131 41.7667
497 2 24.7158 23.308 44.782
498 2 28.309 19.0679 36.5324
499 2 17.6867 22.1246 35.6334
500 2 26.7504 19.081 44.6323
501 1 26.6722 3.05499 31.4383
502 1 30.5519 4.82759 30
503 1 32.0719 0.8863 31.4383
504 1 25.1523 6.99628 30
505 2 27.6829 5.36421 30.2063
506 2 29.5413 2.51837 31.232
507 2 22.2833 6.45966 30.2063
508 2 24.1416 1.42292 31.232
509 2 30.0489 7.31804 30.6132
510 2 27.1753 0.56454 30.8251
511 2 24.6492 4.50583 30.6132
512 2 21.7756 3.37675 30.8251
513 1 29.8999 3.05499 34.086
514 1 22.9803 4.82759 32.6477
515 1 24.5002 0.8863 34.086
516 1 28.3799 6.99628 32.6477
517 2 30.9105 5.36421 32.854
518 2 21.9696 2.51837 33.8797
519 2 25.5109 6.45966 32.854
520 2 27.3693 1.42292 33.8797
521 2 22.4772 7.31804 33.261
522 2 30.4029 0.56454 33.4728
523 2 27.8769 4.50583 33.261
524 2 25.0033 3.37675 33.4728
525 1 22.3322 3.32886 36.4924
526 1 26.1383 4.93571 35.2873
527 1 27.6317 1.00675 36.846
528 1 31.607 7.01267 35.1458
529 2 22.7661 16.4743 36.1356
530 2 28.1895 3.6496 35.9221
531 2 31.312 4.62072 36.0937
532 2 18.3635 23.4768 38.8842
533 2 28.9155 16.8595 42.2869
534 2 2.76529 14.8014 40.5617
535 2 1.91313 5.52451 35.5175
536 2 1.48372 1.47047 39.3581
537 1 25.5321 2.86383 39.6416
538 1 29.0595 5.12542 38.0776
539 1 30.9032 1.11077 39.4651
540 1 24.2939 7.01658 38.1237
541 2 17.8223 2.55922 39.174
542 2 11.7456 8.25862 36.2734
543 2 27.4812 4.42041 40.1923
544 2 19.4868 18.5212 47.2976
545 2 20.9321 3.12163 38.8082
546 2 10.4493 8.4156 45.0834
547 2 5.44886 20.3014 41.6526
548 2 4.34892 8.45947 39.2728
549 1 29.0137 3.70412 41.9881
550 1 21.9209 5.11209 40.832
551 1 23.2432 1.06611 42.9815
552 1 27.2763 7.03345 41.1489
553 3 10.1557 11.7091 47.0215
554 2 15.7132 20.8014 38.1463
555 2 31.9004 14.8909 38.151
556 2 14.7054 2.26566 36.2035
557 2 28.9099 22.2497 35.775
558 2 8.67918 15.2148 46.1984
559 2 23.3934 20.4231 38.7491
560 2 2.42198 6.46583 41.3336
561 1 29.8928 1.40601 47.3606
562 1 24.918 5.0332 44.1664
563 1 25.6802 19.1045 48.0656
564 1 30.4364 7.78065 43.5968
565 2 2.15496 11.2006 41.2577
566 3 16.3542 10.9503 47.9664
567 2 7.36451 7.35467 38.9061
568 2 24.2256 14.4701 41.1296
569 2 31.8794 6.40812 38.4266
570 2 12.8587 18.7378 41.1927
571 2 12.629 5.83505 35.203
572 2 20.6775 19.2011 39.019
573 1 26.6669 1.01261 45.0818
574 1 25.2649 11.3445 47.8053
575 1 28.4544 4.75622 46.0954
576 1 23.0906 7.52684 46.5978
577 2 15.0056 23.4326 42.7208
578 2 0.708201 21.8965 43.5032
579 2 28.7495 23.3559 45.9116
580 2 17.0823 18.1857 39.4851
581 2 19.6457 20.6429 43.3757
582 2 4.70734 5.53082 38.2696
583 2 19.9164 11.3654 47.3596
584 2 21.4293 22.1044 37.8416
585 1 26.6722 10.9376 31.4383
586 1 30.5519 12.7102 30
587 1 32.0719 8.76888 31.4383
588 1 25.1523 14.8789 30
589 2 27.6829 13.2468 30.2063
590 2 29.5413 10.401 31.232
591 2 22.2833 14.3422 30.2063
592 2 24.1416 9.3055 31.232
593 2 30.0489 15.2006 30.6132
594 2 27.1753 8.44712 30.8251
595 2 24.6492 12.3884 30.6132
596 2 21.7756 11.2593 30.8251
597 1 29.8999 10.9376 34.086
598 1 22.9803 12.7102 32.6477
599 1 24.5002 8.76888 34.086
600 1 28.3799 14.8789 32.6477
601 2 30.9105 13.2468 32.854
602 2 21.9696 10.401 33.8797
603 2 25.5109 14.3422 32.854
604 2 27.3693 9.3055 33.8797
605 2 22.4772 15.2006 33.261
606 2 30.4029 8.44712 33.4728
607 2 27.8769 12.3884 33.261
608 2 25.0033 11.2593 33.4728
609 1 22.2856 11.2508 36.7469
610 1 26.053 12.6803 35.4865
611 1 27.689 8.92484 36.4297
612 1 31.7372 14.9433 35.4063
613 2 23.285 13.0674 35.2249
614 2 25.5367 21.192 45.9904
615 2 24.7359 18.4393 36.7437
616 3 15.8574 17.2717 47.4603
617 2 23.4012 12.1845 38.6729
618 2 13.1561 23.0405 44.0057
619 2 15.517 16.9188 42.4525
620 2 18.6952 5.18143 41.6044
621 1 25.5686 11.1232 39.3757
622 1 29.6513 12.8893 37.9029
623 1 30.7795 8.8322 39.4802
624 1 23.8521 15.032 37.8759
625 2 22.8617 0.39587 35.9787
626 2 9.53472 20.2697 43.3634
627 2 14.7432 5.84886 46.242
628 2 12.4475 13.2655 35.9989
629 2 19.6587 13.8042 48.5462
630 2 20.2564 6.63363 46.7743
631 2 10.408 15.2126 41.3424
632 2 1.80768 13.2545 35.8972
633 1 28.8733 11.2933 42.306
634 1 22.0224 12.7141 40.8242
635 1 23.6522 8.59063 42.4209
636 1 27.0967 15.2732 40.7895
637 2 13.3385 6.87271 40.2757
638 2 1.97186 13.4431 46.0267
639 2 30.5454 5.13781 44.0471
640 2 6.89548 10.4542 38.9324
641 2 29.9187 5.84881 40.9284
642 2 23.5661 4.62657 38.7469
643 2 9.93457 17.8048 42.1548
644 2 6.12532 6.29141 43.4328
645 1 0.0741676 11.272 45.1001
646 1 25.164 13.1178 43.6274
647 1 27.0898 9.22838 45.1272
648 1 30.749 15.4887 43.3134
649 2 11.6948 9.00803 47.4769
650 2 29.7765 2.45087 44.8978
651 2 2.67407 2.2351 44.5884
652 2 23.1179 19.492 46.8248
653 2 32.1452 8.94318 45.8419
654 2 20.8679 7.41343 41.4412
655 2 29.6809 18.1838 45.5314
656 2 21.4622 8.97108 45.0708
657 1 23.1433 15.3065 47.1758
658 1 28.8973 12.8916 46.3879
659 1 30.1488 9.23903 47.7708
660 1 29.8369 17.5178 48.1333
661 2 9.31755 12.437 43.6027
662 2 22.3798 8.52393 36.584
663 2 2.11963 17.5426 39.6234
664 2 10.3739 6.04861 38.1574
665 2 26.1456 16.2844 38.8959
666 2 25.6699 4.94461 46.697
667 2 25.3759 10.6491 36.6767
668 2 6.22038 11.1011 36.6471
669 1 26.6722 18.8201 31.4383
670 1 30.5519 20.5928 30
671 1 32.0719 16.6515 31.4383
672 1 25.1523 22.7614 30
673 2 27.6829 21.1294 30.2063
674 2 29.5413 18.2835 31.232
675 2 22.2833 22.2248 30.2063
676 2 24.1416 17.1881 31.232
677 2 30.0489 23.0832 30.6132
678 2 27.1753 16.3297 30.8251
679 2 24.6492 20.271 30.6132
680 2 21.7756 19.1419 30.8251
681 1 29.8999 18.8201 34.086
682 1 22.9803 20.5928 32.6477
683 1 24.5002 16.6515 34.086
684 1 28.3799 22.7614 32.6477
685 2 30.9105 21.1294 32.854
686 2 21.9696 18.2835 33.8797
687 2 25.5109 22.2248 32.854
688 2 27.3693 17.1881 33.8797
689 2 22.4772 23.0832 33.261
690 2 30.4029 16.3297 33.4728
691 2 27.8769 20.271 33.261
692 2 25.0033 19.1419 33.4728
693 1 22.1155 19.1887 36.9611
694 1 26.2627 20.5447 35.3643
695 1 27.7769 16.6858 36.9082
696 1 31.816 22.9032 35.3184
697 2 23.4953 20.8649 35.4431
698 2 16.3169 5.40067 38.4483
699 2 23.0588 19.1199 42.9231
700 2 26.0219 16.5313 47.8097
701 3 23.7177 13.6828 49.2754
702 2 7.00225 18.2629 39.3288
703 2 1.52249 21.1764 35.2759
704 2 28.6192 7.45102 38.8828
705 1 25.4062 18.9403 39.5306
706 1 29.5176 20.7425 38.0228
707 1 30.9497 16.7444 39.3081
708 1 23.9576 22.8394 37.8906
709 2 10.9042 16.6756 45.0714
710 2 18.3201 17.9524 44.9837
711 2 20.5024 11.6147 38.6333
712 2 11.6344 20.1855 46.3881
713 2 16.3868 11.1722 44.0517
714 2 1.46981 4.6079 46.2599
715 2 12.6635 11.0921 42.2345
716 2 25.9965 8.71029 47.3313
717 1 28.4347 19.124 42.5772
718 1 21.4501 20.7892 41.3837
719 1 23.4213 16.7547 42.3053
720 1 27.0212 22.5863 40.7923
721 2 17.9836 19.2031 36.236
722 2 30.4474 4.06379 47.0801
723 2 17.3358 15.0864 50.3353
724 2 13.6891 9.86073 45.0639
725 2 6.23855 22.6372 43.5468
726 2 5.06247 16.9674 42.0776
727 2 12.2893 18.8479 44.0464
728 1 32.2789 19.1598 44.557
729 1 24.8644 20.8381 43.7791
730 1 27.3366 16.4738 45.4044
731 1 30.4115 23.4728 43.5298
732 2 22.9748 17.0546 39.3733
733 2 31.0307 22.8694 46.6587
734 2 31.2626 18.1751 42.2364
735 2 9.87436 5.90075 46.7942
736 2 31.3797 11.8626 47.2672
737 2 32.2167 7.63473 48.5327
738 2 21.5993 16.9968 48.4903
739 2 24.0916 10.0641 45.0054
740 1 18.8955 0.916484 48.3084
741 1 28.4028 20.9607 46.2696
742 1 1.71377 7.22554 46.8286
743 1 24.7494 3.09716 47.7295
744 2 17.2985 7.58785 46.9295
745 2 7.15997 22.5328 35.2199
746 2 24.971 2.24244 36.094
747 2 17.9685 8.63617 42.6362
748 2 8.9971 12.3788 36.0135
749 2 14.152 7.40307 43.2809
750 2 9.37716 20.2884 35.8141
751 2 27.3882 1.93069 48.4184
752 2 16.7143 10.0808 47.7794
753 2 15.5197 17.7387 48.289
754 2 23.4887 14.48 49.9234
755 2 10.2329 12.2181 47.9309
756 2 27.9522 20.0071 49.1931
