# LAMMPS data file
756 atoms
3 atom types
0.0 32.39794198551478 xlo xhi
0.0 23.64774 ylo yhi
0.0 77.32469402918946 zlo zhi

Atoms # atomic

1 1 5.07362 3.05499 31.4383
2 1 8.95332 4.82759 30
3 1 10.4733 0.886302 31.4383
4 1 3.55366 6.99628 30
5 2 6.08428 5.36421 30.2063
6 2 7.94266 2.51837 31.232
7 2 0.684626 6.45966 30.2063
8 2 2.543 1.42292 31.232
9 2 8.45027 7.31804 30.6132
10 2 5.57667 0.564542 30.8251
11 2 3.05061 4.50583 30.6132
12 2 0.177018 3.37675 30.8251
13 1 8.30125 3.05499 34.086
14 1 1.38163 4.82759 32.6477
15 1 2.90159 0.886302 34.086
16 1 6.78129 6.99628 32.6477
17 2 9.31191 5.36421 32.854
18 2 0.370971 2.51837 33.8797
19 2 3.91225 6.45966 32.854
20 2 5.77063 1.42292 33.8797
21 2 0.878579 7.31804 33.261
22 2 8.8043 0.564542 33.4728
23 2 6.27824 4.50583 33.261
24 2 3.40464 3.37675 33.4728
25 1 0.647139 3.02389 36.6018
26 1 4.58391 4.51191 35.2598
27 1 6.15255 0.510602 36.5866
28 1 9.9109 7.01713 35.2905
29 2 1.96164 5.16265 35.8098
30 2 3.48972 2.52651 36.7412
31 2 7.23861 6.57305 35.6365
32 2 8.53991 1.15628 36.5409
33 2 4.05643 7.41392 35.8415
34 2 1.49933 0.520409 36.0837
35 2 9.51861 4.18753 35.7396
36 2 6.8256 3.02017 36.2334
37 1 3.97632 2.80694 39.5669
38 1 7.62406 4.95035 38.1738
39 1 9.34083 0.856604 39.7018
40 1 2.59879 6.9664 37.9987
41 2 4.96621 5.47786 38.4558
42 2 5.87588 6.10994 43.6008
43 2 10.0789 6.60523 37.9097
44 2 4.68023 0.360482 38.8874
45 2 6.34514 10.637 38.9739
46 2 6.72439 2.14363 39.6489
47 2 2.00061 4.39819 38.6741
48 2 7.16356 7.65841 38.8406
49 1 6.9487 3.32771 42.4276
50 1 0.202249 4.8285 40.7352
51 1 1.888 0.902873 42.6248
52 1 5.51701 7.00209 41.0053
53 2 13.3048 3.57885 41.3945
54 2 4.46745 1.11818 42.3549
55 2 3.08801 7.31865 44.1672
56 2 6.25031 22.079 43.7745
57 2 10.0237 10.3907 42.3714
58 2 0.699799 6.18389 43.4453
59 2 2.91419 6.452 41.0839
60 2 16.3314 3.63104 48.7149
61 1 10.4081 3.17265 44.8434
62 1 3.3931 4.92204 43.2898
63 1 5.43462 0.569882 45.128
64 1 9.00983 7.23877 43.4374
65 2 3.26612 8.45231 47.1437
66 2 27.0878 2.48754 47.0363
67 2 7.82231 9.14532 44.9774
68 2 29.3934 9.34724 44.4594
69 2 8.26281 4.88031 44.2433
70 2 11.0511 9.08654 47.8839
71 2 11.9338 1.67841 39.3219
72 2 31.234 2.20766 42.3857
73 1 2.68212 3.18487 47.2713
74 1 6.6032 4.9737 46.3015
75 1 8.69837 0.983537 47.8282
76 1 1.19252 7.06874 45.8629
77 2 2.23804 3.24539 41.3954
78 2 6.97794 22.8138 46.9855
79 2 22.7548 12.7849 46.3533
80 2 27.8852 22.2278 43.8822
81 2 4.83473 9.40224 42.2833
82 2 17.1739 7.29052 46.741
83 2 3.05782 22.9808 44.3519
84 2 29.249 1.63196 45.0213
85 1 5.07362 10.9376 31.4383
86 1 8.95332 12.7102 30
87 1 10.4733 8.76888 31.4383
88 1 3.55366 14.8789 30
89 2 6.08428 13.2468 30.2063
90 2 7.94266 10.401 31.232
91 2 0.684626 14.3422 30.2063
92 2 2.543 9.3055 31.232
93 2 8.45027 15.2006 30.6132
94 2 5.57667 8.44712 30.8251
95 2 3.05061 12.3884 30.6132
96 2 0.177018 11.2593 30.8251
97 1 8.30125 10.9376 34.086
98 1 1.38163 12.7102 32.6477
99 1 2.90159 8.76888 34.086
100 1 6.78129 14.8789 32.6477
101 2 9.31191 13.2468 32.854
102 2 0.370971 10.401 33.8797
103 2 3.91225 14.3422 32.854
104 2 5.77063 9.3055 33.8797
105 2 0.878579 15.2006 33.261
106 2 8.8043 8.44712 33.4728
107 2 6.27824 12.3884 33.261
108 2 3.40464 11.2593 33.4728
109 1 0.912707 11.1563 36.8101
110 1 4.50079 12.8034 35.3622
111 1 5.97151 8.76887 37.0131
112 1 9.91978 14.8551 35.3761
113 2 1.81728 13.3267 35.576
114 2 4.08019 10.5323 37.0449
115 2 7.14809 14.9517 35.5587
116 2 8.61999 9.34495 36.9931
117 2 4.17657 15.4153 36.0576
118 2 1.2635 8.41416 36.151
119 2 9.38549 12.2494 35.7749
120 2 6.7372 11.5558 36.0319
121 1 4.05764 11.1507 39.6934
122 1 7.83916 12.8118 37.9356
123 1 9.29582 8.81018 39.4003
124 1 2.59091 15.0768 38.0414
125 2 4.7635 13.4646 38.0601
126 2 5.16195 12.4832 41.6178
127 2 10.7018 15.2451 41.434
128 2 1.65486 9.50596 39.407
129 2 7.36624 15.3371 38.8437
130 2 4.43369 8.12919 39.1909
131 2 2.0299 12.5598 38.8572
132 2 9.79014 11.3889 38.9086
133 1 7.20862 11.0567 42.2395
134 1 0.172008 12.7008 40.6988
135 1 1.52369 8.72699 42.0201
136 1 5.53806 14.8876 40.6927
137 2 7.99433 13.2281 41.1578
138 2 14.3829 8.71282 47.2338
139 2 2.35142 14.3555 40.5776
140 2 10.835 0.600686 44.1026
141 2 11.5339 16.2532 43.8955
142 2 2.07835 11.4704 41.6472
143 2 3.17969 15.41 44.0439
144 2 31.405 10.3092 41.596
145 1 10.4793 11.0749 45.2231
146 1 3.48041 12.7444 43.4577
147 1 4.95746 8.61566 45.002
148 1 9.19048 14.7681 43.4451
149 2 29.6954 12.2854 43.8393
150 2 6.29191 7.34337 46.773
151 2 8.53675 12.435 43.9878
152 2 4.82759 16.712 42.2322
153 2 3.32607 16.4236 47.458
154 2 24.9107 1.19257 46.9242
155 2 0.344014 16.2822 44.1569
156 2 4.26979 13.2004 46.4501
157 1 3.11375 11.0601 47.4052
158 1 6.78509 12.5741 46.498
159 1 8.24674 8.66175 47.4819
160 1 1.54276 15.2041 46.2861
161 2 6.63668 14.9507 47.317
162 2 32.3612 8.63979 43.9294
163 2 18.9405 9.031 44.6536
164 2 3.08175 21.9405 41.0022
165 2 0.0230039 1.25465 47.5188
166 2 30.4005 11.4221 47.0026
167 2 12.627 12.1763 45.9313
168 1 5.07362 18.8201 31.4383
169 1 8.95332 20.5928 30
170 1 10.4733 16.6515 31.4383
171 1 3.55366 22.7614 30
172 2 6.08428 21.1294 30.2063
173 2 7.94266 18.2835 31.232
174 2 0.684626 22.2248 30.2063
175 2 2.543 17.1881 31.232
176 2 8.45027 23.0832 30.6132
177 2 5.57667 16.3297 30.8251
178 2 3.05061 20.271 30.6132
179 2 0.177018 19.1419 30.8251
180 1 8.30125 18.8201 34.086
181 1 1.38163 20.5928 32.6477
182 1 2.90159 16.6515 34.086
183 1 6.78129 22.7614 32.6477
184 2 9.31191 21.1294 32.854
185 2 0.370971 18.2835 33.8797
186 2 3.91225 22.2248 32.854
187 2 5.77063 17.1881 33.8797
188 2 0.878579 23.0832 33.261
189 2 8.8043 16.3297 33.4728
190 2 6.27824 20.271 33.261
191 2 3.40464 19.1419 33.4728
192 1 0.810689 19.2123 36.8679
193 1 4.57713 20.3329 35.3806
194 1 6.17995 16.8465 37.0196
195 1 10.0413 22.934 35.2511
196 2 2.14931 21.1558 35.3681
197 2 3.57943 18.0724 36.4131
198 2 7.45869 21.7236 35.8122
199 2 9.26773 17.0319 36.8931
200 2 4.23799 22.9141 35.8412
201 2 1.38125 16.6357 36.2245
202 2 9.4017 20.2911 35.9204
203 2 7.0349 19.1089 36.154
204 1 3.85703 18.9202 39.4493
205 1 8.0518 20.3236 38.1484
206 1 9.33863 16.5491 39.6402
207 1 2.54234 22.8301 37.9555
208 2 4.99315 20.4911 38.0297
209 2 6.79077 18.2222 39.0299
210 2 10.8804 21.8907 38.2545
211 2 1.59435 17.588 39.0907
212 2 7.43864 22.7586 38.6973
213 2 4.43542 16.3912 39.2668
214 2 2.04304 20.7274 38.7898
215 2 8.67507 21.3769 41.3044
216 1 7.15923 18.4291 42.6996
217 1 0.352795 20.708 40.7702
218 1 2.00016 16.6105 42.0658
219 1 5.81988 22.75 40.8135
220 2 22.7045 20.5597 46.67
221 2 15.1495 21.2448 45.9787
222 2 5.58451 18.7144 44.4599
223 2 0.917089 21.3922 44.2729
224 2 7.54999 0.950035 41.9908
225 2 5.52942 11.1488 44.0559
226 2 31.0155 23.0034 46.4957
227 2 32.2827 15.3566 41.4612
228 1 10.7225 18.67 44.931
229 1 3.57223 20.474 43.541
230 1 5.26412 16.3797 45.5993
231 1 8.87977 22.7626 43.4948
232 2 32.4764 9.30101 46.6758
233 2 24.9174 16.9388 47.1031
234 2 9.81179 18.8501 38.8988
235 2 11.0955 8.5942 44.2638
236 2 5.20178 20.0335 41.517
237 2 21.7854 16.7727 44.3281
238 2 7.76526 15.9586 41.6467
239 2 12.0117 20.1173 46.5834
240 1 3.006 18.8455 47.4299
241 1 6.86489 20.3719 46.3245
242 1 8.786 16.5994 47.8138
243 1 1.29718 22.669 46.4771
244 2 11.5637 16.8056 47.5196
245 2 27.9945 23.2642 46.4959
246 2 8.70943 18.9465 47.0519
247 2 16.8709 6.14888 43.4999
248 2 0.10257 0.689941 44.3677
249 2 27.525 14.6785 43.4533
250 2 24.6447 15.291 44.0518
251 2 30.2106 20.7256 44.0172
252 1 15.8729 3.05499 31.4383
253 1 19.7526 4.82759 30
254 1 21.2726 0.886302 31.4383
255 1 14.353 6.99628 30
256 2 16.8836 5.36421 30.2063
257 2 18.742 2.51837 31.232
258 2 11.4839 6.45966 30.2063
259 2 13.3423 1.42292 31.232
260 2 19.2496 7.31804 30.6132
261 2 16.376 0.564542 30.8251
262 2 13.8499 4.50583 30.6132
263 2 10.9763 3.37675 30.8251
264 1 19.1006 3.05499 34.086
265 1 12.1809 4.82759 32.6477
266 1 13.7009 0.886302 34.086
267 1 17.5806 6.99628 32.6477
268 2 20.1112 5.36421 32.854
269 2 11.1703 2.51837 33.8797
270 2 14.7116 6.45966 32.854
271 2 16.5699 1.42292 33.8797
272 2 11.6779 7.31804 33.261
273 2 19.6036 0.564542 33.4728
274 2 17.0775 4.50583 33.261
275 2 14.204 3.37675 33.4728
276 1 11.4213 3.21725 36.7969
277 1 15.3149 4.83771 35.2736
278 1 16.9838 0.871958 36.6102
279 1 20.8472 6.97016 35.3312
280 2 12.4584 5.45461 35.8585
281 2 14.3558 2.85051 36.6681
282 2 17.6789 6.49592 35.7123
283 2 19.8028 1.43466 36.7692
284 2 14.6481 7.35743 36.1821
285 2 11.9609 0.735312 35.9038
286 2 20.5606 4.19001 35.4418
287 2 17.4709 3.5543 36.3224
288 1 14.8328 3.14009 39.4173
289 1 18.6591 4.71776 38.2214
290 1 20.1433 0.913513 39.4577
291 1 13.2098 7.03291 38.1555
292 2 15.767 5.31351 38.2084
293 2 15.6314 4.5287 41.0129
294 2 21.4594 6.03187 37.9048
295 2 2.93554 17.937 45.1193
296 2 18.4815 7.32199 38.6345
297 2 9.67833 3.25605 38.9143
298 2 12.3426 4.78985 38.6703
299 2 23.1469 1.79053 39.1142
300 1 18.0866 3.28563 42.2789
301 1 10.9124 4.98273 40.6975
302 1 12.639 0.977852 41.9915
303 1 16.5339 7.05053 40.5576
304 2 13.6322 6.80106 40.8855
305 2 30.601 3.26046 47.2192
306 2 14.8055 5.64932 46.0789
307 2 13.9824 22.3533 40.568
308 2 22.6 4.63824 46.8581
309 2 18.4429 0.220069 41.5946
310 2 13.6941 7.37157 44.074
311 2 25.217 5.66329 45.8322
312 1 21.2416 3.33962 45.1049
313 1 14.2595 4.92887 43.4251
314 1 15.868 0.898368 45.0703
315 1 20.1506 7.24039 43.2703
316 2 8.3805 19.8356 44.2401
317 2 11.9585 4.97744 46.4761
318 2 8.04343 5.50998 40.7529
319 2 13.5397 2.55007 44.4411
320 2 22.1607 9.54711 47.8053
321 2 11.4529 5.27245 43.2877
322 2 20.897 10.6217 42.0435
323 2 19.4236 20.3319 44.114
324 1 14.0676 3.33102 47.1136
325 1 17.6616 5.04701 45.8374
326 1 18.7688 1.36247 47.4472
327 1 12.2625 7.38044 46.3182
328 2 15.6456 1.62874 41.4131
329 2 16.9721 22.4313 43.7265
330 2 19.2903 4.8633 43.8285
331 2 9.0773 3.23043 47.2306
332 2 13.0989 19.1807 41.3452
333 2 28.3861 15.3164 47.0285
334 2 15.6148 8.53314 38.7677
335 2 5.01812 4.54616 41.3777
336 1 15.8729 10.9376 31.4383
337 1 19.7526 12.7102 30
338 1 21.2726 8.76888 31.4383
339 1 14.353 14.8789 30
340 2 16.8836 13.2468 30.2063
341 2 18.742 10.401 31.232
342 2 11.4839 14.3422 30.2063
343 2 13.3423 9.3055 31.232
344 2 19.2496 15.2006 30.6132
345 2 16.376 8.44712 30.8251
346 2 13.8499 12.3884 30.6132
347 2 10.9763 11.2593 30.8251
348 1 19.1006 10.9376 34.086
349 1 12.1809 12.7102 32.6477
350 1 13.7009 8.76888 34.086
351 1 17.5806 14.8789 32.6477
352 2 20.1112 13.2468 32.854
353 2 11.1703 10.401 33.8797
354 2 14.7116 14.3422 32.854
355 2 16.5699 9.3055 33.8797
356 2 11.6779 15.2006 33.261
357 2 19.6036 8.44712 33.4728
358 2 17.0775 12.3884 33.261
359 2 14.204 11.2593 33.4728
360 1 11.5171 10.9134 36.7188
361 1 15.519 12.788 35.2809
362 1 16.9592 8.82305 36.7485
363 1 20.8482 15.2232 35.4118
364 2 12.6998 13.0688 35.3134
365 2 17.8639 10.3259 39.3815
366 2 17.7183 14.408 35.0975
367 2 20.3199 9.35684 36.7928
368 2 14.9955 15.1958 35.7992
369 2 11.8858 8.14626 36.1816
370 2 20.0882 12.7018 35.9372
371 2 14.211 10.704 36.4448
372 1 14.4876 11.0451 39.5146
373 1 18.4344 12.6645 38.1144
374 1 20.481 8.92536 39.4292
375 1 13.3166 14.8094 37.9277
376 2 15.6245 13.3741 38.2187
377 2 13.5269 14.2593 40.9158
378 2 20.974 14.4773 38.0232
379 2 12.0706 9.50101 39.0715
380 2 19.1192 12.9498 40.7847
381 2 10.6183 7.68248 41.3573
382 2 10.3712 14.1593 38.5881
383 2 17.7748 15.2833 45.5173
384 1 18.0899 10.8869 42.2062
385 1 11.1852 12.5729 40.5635
386 1 12.7303 8.95021 42.3161
387 1 16.5418 14.9169 40.6289
388 2 16.5901 14.449 43.379
389 2 17.6119 11.2414 35.9703
390 2 12.6408 12.3254 38.4313
391 2 23.8329 10.4161 45.0443
392 2 20.4706 11.3673 38.7886
393 2 20.835 2.64844 41.5683
394 2 18.6025 8.45872 41.6271
395 2 13.7734 10.3581 45.0005
396 1 21.2154 11.3039 45.0887
397 1 14.4271 12.6394 43.3088
398 1 16.1579 8.78644 44.9573
399 1 19.8707 15.0648 43.4155
400 2 11.6669 0.888482 47.3389
401 2 13.4164 18.2614 44.7412
402 2 21.6993 7.56096 40.8962
403 2 16.4558 19.2082 44.5815
404 2 20.5252 22.1293 45.9817
405 2 11.0828 22.7523 40.5826
406 2 10.36 18.17 41.8059
407 2 13.1655 11.1159 41.6092
408 1 13.9494 11.0161 47.5609
409 1 17.5242 12.7394 46.0402
410 1 19.4142 8.76419 47.3548
411 1 12.4731 15.0762 45.862
412 2 16.4782 11.401 44.2308
413 2 20.4845 14.3715 46.1727
414 2 21.6313 0.940767 44.1021
415 2 11.807 12.9665 43.854
416 2 22.1462 8.76597 44.2984
417 2 7.6687 8.50298 41.5372
418 2 8.17753 1.53199 45.272
419 1 15.8729 18.8201 31.4383
420 1 19.7526 20.5928 30
421 1 21.2726 16.6515 31.4383
422 1 14.353 22.7614 30
423 2 16.8836 21.1294 30.2063
424 2 18.742 18.2835 31.232
425 2 11.4839 22.2248 30.2063
426 2 13.3423 17.1881 31.232
427 2 19.2496 23.0832 30.6132
428 2 16.376 16.3297 30.8251
429 2 13.8499 20.271 30.6132
430 2 10.9763 19.1419 30.8251
431 1 19.1006 18.8201 34.086
432 1 12.1809 20.5928 32.6477
433 1 13.7009 16.6515 34.086
434 1 17.5806 22.7614 32.6477
435 2 20.1112 21.1294 32.854
436 2 11.1703 18.2835 33.8797
437 2 14.7116 22.2248 32.854
438 2 16.5699 17.1881 33.8797
439 2 11.6779 23.0832 33.261
440 2 19.6036 16.3297 33.4728
441 2 17.0775 20.271 33.261
442 2 14.204 19.1419 33.4728
443 1 11.6768 18.7627 36.7849
444 1 15.5311 20.6736 35.207
445 1 16.752 16.6192 36.6933
446 1 21.0946 22.766 35.3404
447 2 12.5132 20.9241 35.4788
448 2 14.1616 18.0632 36.6742
449 2 18.0652 22.0597 35.4079
450 2 19.6333 17.2968 36.2195
451 2 14.7995 23.1037 35.6563
452 2 12.0824 16.4594 36.0765
453 2 20.3002 20.2323 35.8329
454 2 17.3967 18.9345 36.3254
455 1 14.9418 18.705 39.5434
456 1 18.7858 20.6239 38.072
457 1 20.0639 16.7443 39.5008
458 1 13.2641 22.5931 38.019
459 2 15.7078 21.0882 38.2862
460 2 17.8789 15.3954 38.5931
461 2 20.9169 22.4649 38.0748
462 2 12.4553 17.0881 39.2503
463 2 18.2524 23.2489 38.6725
464 2 17.4406 17.844 39.0371
465 2 13 19.9884 38.7404
466 2 20.7573 18.3488 41.7626
467 1 18.2081 18.7798 42.3109
468 1 11.2103 20.4042 40.5663
469 1 12.7987 16.5841 41.9163
470 1 16.4162 22.7894 40.7396
471 2 10.0778 14.8969 46.2531
472 2 15.6447 9.21091 42.0955
473 2 15.1327 0.689667 38.4743
474 2 18.2153 16.2526 41.5223
475 2 21.4641 23.3866 41.1211
476 2 10.0017 2.4796 41.987
477 2 16.0956 20.1624 41.6161
478 2 15.8408 17.4321 41.9876
479 1 21.3454 19.2689 45.073
480 1 14.4268 20.4697 43.3648
481 1 16.0276 16.5967 44.7135
482 1 19.8886 23.0544 43.5703
483 2 3.88965 20.7596 46.5119
484 2 11.4609 20.8612 44.294
485 2 20.7967 19.2074 38.9361
486 2 16.1739 12.2296 41.2565
487 2 14.0394 15.2981 43.5233
488 2 3.3934 0.909634 46.7484
489 2 19.2261 17.482 45.0594
490 2 15.0544 16.056 39.1985
491 1 14.1071 18.8084 47.2852
492 1 17.8351 20.7606 46.1499
493 1 19.1105 16.5577 47.2587
494 1 12.0099 22.7445 45.9153
495 2 13.944 23.2971 43.859
496 2 5.65399 18.4352 47.3667
497 2 7.92407 17.2709 45.1958
498 2 2.13661 19.251 41.9023
499 2 5.28647 3.38687 47.9781
500 2 18.757 1.81991 44.7758
501 2 9.38887 22.84 46.0194
502 2 19.5178 18.9402 46.5972
503 1 26.6722 3.05499 31.4383
504 1 30.5519 4.82759 30
505 1 32.0719 0.886302 31.4383
506 1 25.1523 6.99628 30
507 2 27.6829 5.36421 30.2063
508 2 29.5413 2.51837 31.232
509 2 22.2833 6.45966 30.2063
510 2 24.1416 1.42292 31.232
511 2 30.0489 7.31804 30.6132
512 2 27.1753 0.564542 30.8251
513 2 24.6492 4.50583 30.6132
514 2 21.7756 3.37675 30.8251
515 1 29.8999 3.05499 34.086
516 1 22.9803 4.82759 32.6477
517 1 24.5002 0.886302 34.086
518 1 28.3799 6.99628 32.6477
519 2 30.9105 5.36421 32.854
520 2 21.9696 2.51837 33.8797
521 2 25.5109 6.45966 32.854
522 2 27.3693 1.42292 33.8797
523 2 22.4772 7.31804 33.261
524 2 30.4029 0.564542 33.4728
525 2 27.8769 4.50583 33.261
526 2 25.0033 3.37675 33.4728
527 1 22.3395 3.05566 36.6549
528 1 26.2154 4.83831 35.159
529 1 27.9245 0.778999 36.7159
530 1 31.6018 7.0279 35.217
531 2 23.4602 5.27739 35.6235
532 2 25.179 2.71114 36.2523
533 2 29.0262 6.42628 35.329
534 2 30.9051 1.66911 36.0223
535 2 25.5823 7.14705 35.8209
536 2 23.1048 0.726335 36.1843
537 2 30.901 4.53918 36.1171
538 2 28.0675 3.33857 36.408
539 1 25.6529 3.10662 39.098
540 1 29.4834 4.71246 37.9558
541 1 31.2179 0.750291 39.7922
542 1 23.9115 6.88424 37.7327
543 2 26.5381 5.43588 38.1184
544 2 27.9837 1.79764 39.1889
545 2 32.1126 6.31924 38.3474
546 2 26.097 0.580041 38.659
547 2 28.9259 7.37665 38.3608
548 2 26.2824 1.13051 42.1726
549 2 23.539 4.4941 38.4559
550 2 31.4601 3.20971 38.9381
551 1 28.6376 2.8372 41.9749
552 1 21.7808 4.95521 40.619
553 1 23.4612 0.967715 42.2098
554 1 27.23 6.96921 40.6411
555 2 29.7275 5.20897 40.8455
556 2 29.8792 4.34809 43.7125
557 2 24.6053 6.24734 40.9349
558 2 31.9987 18.4962 41.7556
559 2 30.7764 6.55933 46.033
560 2 21.6697 1.72901 47.7103
561 2 26.3927 9.15406 41.6099
562 2 24.2313 3.38466 41.2604
563 1 31.8563 3.27863 45.0055
564 1 25.0205 5.0893 43.261
565 1 26.5049 0.941102 45.009
566 1 30.3782 7.26317 43.3771
567 2 9.09402 6.85923 46.0441
568 2 21.86 17.1455 47.6922
569 2 26.665 4.45428 41.4303
570 2 20.9153 3.2947 38.7153
571 2 16.4271 10.4563 47.5231
572 2 20.4948 6.80338 45.6972
573 2 2.72733 10.3571 44.9625
574 2 5.38163 3.47319 44.4741
575 1 24.7027 3.47169 47.2733
576 1 28.3463 4.74279 45.6578
577 1 29.7854 1.12591 47.6218
578 1 22.978 7.15774 46.3351
579 2 22.2705 5.5664 43.4962
580 2 25.0669 8.5809 47.2687
581 2 26.8069 6.85157 43.2984
582 2 17.6804 23.3333 46.246
583 2 23.9135 11.5179 41.575
584 2 14.385 16.528 46.4217
585 2 19.2254 5.60206 40.5199
586 2 25.046 21.483 46.2256
587 1 26.6722 10.9376 31.4383
588 1 30.5519 12.7102 30
589 1 32.0719 8.76888 31.4383
590 1 25.1523 14.8789 30
591 2 27.6829 13.2468 30.2063
592 2 29.5413 10.401 31.232
593 2 22.2833 14.3422 30.2063
594 2 24.1416 9.3055 31.232
595 2 30.0489 15.2006 30.6132
596 2 27.1753 8.44712 30.8251
597 2 24.6492 12.3884 30.6132
598 2 21.7756 11.2593 30.8251
599 1 29.8999 10.9376 34.086
600 1 22.9803 12.7102 32.6477
601 1 24.5002 8.76888 34.086
602 1 28.3799 14.8789 32.6477
603 2 30.9105 13.2468 32.854
604 2 21.9696 10.401 33.8797
605 2 25.5109 14.3422 32.854
606 2 27.3693 9.3055 33.8797
607 2 22.4772 15.2006 33.261
608 2 30.4029 8.44712 33.4728
609 2 27.8769 12.3884 33.261
610 2 25.0033 11.2593 33.4728
611 1 22.178 11.1358 36.762
612 1 26.0066 12.5491 35.3553
613 1 27.5004 8.66582 36.814
614 1 31.9105 15.0154 35.326
615 2 23.4315 13.5807 35.5276
616 2 25.0696 10.3519 36.6502
617 2 28.3883 14.0399 35.6264
618 2 30.0896 9.09346 36.4138
619 2 25.8584 15.0771 35.6879
620 2 22.6614 8.51481 36.3718
621 2 30.8325 12.5615 35.8684
622 2 28.181 11.0118 36.3092
623 1 25.6094 10.9688 39.4376
624 1 29.307 12.7219 37.9271
625 1 30.947 8.64911 39.2156
626 1 24.0155 15.055 38.2749
627 2 23.5794 12.5276 38.6647
628 2 26.7206 12.2138 41.5073
629 2 32.0855 14.5002 37.9747
630 2 25.6738 8.22014 38.9993
631 2 29.3562 15.3696 38.7666
632 2 24.6637 7.60443 44.1005
633 2 23.0182 9.82374 39.5212
634 2 31.6592 11.2945 38.6008
635 1 28.6671 10.8409 42.0807
636 1 21.7424 12.6093 40.473
637 1 23.6523 8.97048 42.1223
638 1 27.4027 15.0048 40.8206
639 2 0.16811 13.0164 43.14
640 2 8.69431 11.3701 47.287
641 2 21.1981 15.2061 41.358
642 2 26.3271 13.1914 38.6624
643 2 1.35531 12.6214 46.0546
644 2 16.2184 3.15288 44.2091
645 2 25.9966 17.2756 42.0912
646 2 17.6294 2.47496 39.6116
647 1 31.8123 10.9148 44.7227
648 1 24.9914 12.881 43.3226
649 1 26.5366 8.86109 45.0205
650 1 30.4555 14.8635 43.5735
651 2 18.7163 12.6252 44.0798
652 2 19.4379 11.2039 46.8671
653 2 28.5164 10.6268 39.194
654 2 29.1325 8.36712 41.3338
655 2 24.227 14.2727 41.4342
656 2 16.72 18.2326 47.3815
657 2 29.8179 13.1648 41.2108
658 2 27.5998 18.5815 47.0047
659 1 24.4798 11.1372 47.3275
660 1 28.2096 12.7606 45.8634
661 1 29.7814 8.88611 47.3657
662 1 23.0354 15.2817 46.2439
663 2 27.3112 10.8372 44.0372
664 2 28.1962 7.65407 45.938
665 2 25.8113 13.1109 46.3369
666 2 14.7512 13.1738 46.4031
667 2 32.1017 7.41737 41.1414
668 2 6.40601 14.5409 44.1703
669 2 24.1617 19.1624 41.7129
670 2 5.8028 10.29 47.3805
671 1 26.6722 18.8201 31.4383
672 1 30.5519 20.5928 30
673 1 32.0719 16.6515 31.4383
674 1 25.1523 22.7614 30
675 2 27.6829 21.1294 30.2063
676 2 29.5413 18.2835 31.232
677 2 22.2833 22.2248 30.2063
678 2 24.1416 17.1881 31.232
679 2 30.0489 23.0832 30.6132
680 2 27.1753 16.3297 30.8251
681 2 24.6492 20.271 30.6132
682 2 21.7756 19.1419 30.8251
683 1 29.8999 18.8201 34.086
684 1 22.9803 20.5928 32.6477
685 1 24.5002 16.6515 34.086
686 1 28.3799 22.7614 32.6477
687 2 30.9105 21.1294 32.854
688 2 21.9696 18.2835 33.8797
689 2 25.5109 22.2248 32.854
690 2 27.3693 17.1881 33.8797
691 2 22.4772 23.0832 33.261
692 2 30.4029 16.3297 33.4728
693 2 27.8769 20.271 33.261
694 2 25.0033 19.1419 33.4728
695 1 22.5348 19.0239 37.0576
696 1 26.0913 20.4031 35.2085
697 1 27.8221 16.3219 36.766
698 1 31.5844 22.5928 35.0454
699 2 23.6545 21.0205 36.0651
700 2 25.2026 17.8659 36.6973
701 2 28.7923 22.112 35.5874
702 2 30.6962 17.1024 36.6838
703 2 25.82 22.9509 35.8553
704 2 22.6127 16.4839 36.7818
705 2 30.9618 20.2035 35.9409
706 2 28.0612 18.9201 36.1284
707 1 25.6983 18.6568 39.6979
708 1 29.3918 20.5794 37.7971
709 1 31.4719 16.5187 39.4545
710 1 24.1755 22.6955 38.0563
711 2 26.6855 21.4547 38.007
712 2 28.6422 18.4676 39.466
713 2 32.3238 21.7629 38.3055
714 2 25.8442 16.3294 38.7678
715 2 29.653 23.1234 38.5066
716 2 23.2008 17.4099 39.4614
717 2 23.7145 20.0964 38.7171
718 2 31.4709 19.2625 39.007
719 1 28.988 19.0289 42.1828
720 1 22.1099 20.5672 40.756
721 1 23.4516 16.8695 42.3487
722 1 27.5518 22.8488 40.568
723 2 32.332 23.0398 41.4706
724 2 30.9682 14.7502 45.9279
725 2 24.6672 22.0569 40.8323
726 2 26.9549 19.2031 44.7105
727 2 1.59527 1.03349 39.8805
728 2 29.4203 16.4884 41.7769
729 2 26.8632 20.214 41.2994
730 2 22.4396 20.8222 43.2843
731 1 0.0585654 18.9528 44.7926
732 1 25.2737 20.7162 43.3602
733 1 26.8477 16.8141 45.065
734 1 30.4982 23.1983 43.6537
735 2 19.1934 21.4423 40.7448
736 2 0.843582 4.62313 46.4989
737 2 29.1714 0.516899 41.5558
738 2 22.0657 13.7468 43.9901
739 2 24.448 23.1776 43.9686
740 2 26.7755 3.48137 44.1961
741 2 30.7254 19.6842 46.5841
742 2 24.3647 18.3084 45.0844
743 1 24.6954 19.1921 47.2116
744 1 28.6706 20.8692 46.0632
745 1 30.15 17.1082 47.2876
746 1 22.9617 23.055 46.278
747 2 0.430703 17.5693 47.2324
748 2 29.8577 21.4578 41.0486
749 2 3.71661 5.27298 45.9584
750 2 30.0261 17.495 44.5626
751 2 1.03159 20.1994 47.27
752 2 27.1247 10.5948 47.3211
753 2 1.74374 2.93659 44.1962
754 2 23.7926 2.88355 44.5876
755 3 16.8667 3.36468 47.6441
756 3 16.4762 2.06559 47.0903
