# LAMMPS data file
760 atoms
3 atom types
0.0 32.39794198551478 xlo xhi
0.0 23.64774 ylo yhi
0.0 77.32469402918946 zlo zhi

Atoms # atomic

1 1 5.45428 4.08007 29.1964
2 1 9.33398 5.85267 27.7581
3 1 10.854 1.91139 29.1964
4 1 3.93432 8.02136 27.7581
5 2 6.46494 6.38929 27.9644
6 2 8.32332 3.54345 28.9901
7 2 1.06528 7.48474 27.9644
8 2 2.92366 2.448 28.9901
9 2 8.83093 8.34312 28.3713
10 2 5.95733 1.58963 28.5832
11 2 3.43127 5.53091 28.3713
12 2 0.55768 4.40183 28.5832
13 1 8.68191 4.08007 31.8441
14 1 1.76229 5.85267 30.4058
15 1 3.28225 1.91139 31.8441
16 1 7.16195 8.02136 30.4058
17 2 9.69257 6.38929 30.6121
18 2 0.75163 3.54345 31.6378
19 2 4.29291 7.48474 30.6121
20 2 6.15129 2.448 31.6378
21 2 1.25924 8.34312 31.0191
22 2 9.18496 1.58963 31.2309
23 2 6.6589 5.53091 31.0191
24 2 3.7853 4.40183 31.2309
25 1 1.19463 4.21112 34.5607
26 1 5.15429 5.968 32.9513
27 1 6.43827 1.87975 34.5321
28 1 10.463 8.2074 33.2155
29 2 2.372 6.24261 33.1486
30 2 4.22497 3.61302 34.1174
31 2 6.77013 4.40933 33.7993
32 2 9.21542 2.76731 34.1251
33 2 7.6742 7.39559 33.2214
34 2 1.31583 1.59261 34.2723
35 2 10.1021 5.62311 33.7889
36 2 4.37247 8.23395 33.7644
37 1 4.2251 4.17755 36.9727
38 1 8.03761 5.72136 35.5257
39 1 9.51784 1.87745 37.335
40 1 2.76929 8.1433 35.9078
41 2 5.52028 5.75116 39.2113
42 2 6.92867 3.59573 36.8653
43 2 8.09842 8.1869 35.9353
44 2 1.96801 2.72971 36.9589
45 2 5.7392 6.42413 35.7742
46 2 4.64347 1.61601 36.6308
47 2 2.18017 5.66873 36.293
48 2 10.3756 4.37047 36.5116
49 1 7.45847 4.09503 39.7099
50 1 0.597168 5.62524 38.458
51 1 2.26163 1.90314 39.7749
52 1 5.88007 8.09937 38.2588
53 2 8.19478 5.92481 38.0849
54 2 8.04 1.96996 42.7447
55 2 0.538153 8.15727 38.7444
56 2 2.60945 22.9478 38.4345
57 2 11.0555 7.6605 36.1087
58 2 7.79197 1.65433 39.2779
59 2 6.39421 7.40907 41.7014
60 2 15.327 6.10378 43.753
61 1 10.7135 4.14105 42.1027
62 1 3.86282 5.37218 40.9223
63 1 5.54738 1.72509 42.7182
64 1 8.95023 8.07782 41.1193
65 2 11.0548 1.53963 41.8209
66 2 3.35066 8.35873 41.461
67 2 11.4045 10.3487 44.6971
68 2 31.246 0.0154746 43.7544
69 2 9.42744 8.07981 43.4842
70 2 2.9302 3.34238 41.9556
71 2 12.588 4.16881 39.8962
72 2 2.70517 4.37118 39.0055
73 1 3.18089 3.89266 45.1252
74 1 7.0536 5.88039 43.944
75 1 8.8215 2.24321 45.1095
76 1 1.39472 7.84138 43.9243
77 2 4.76333 2.54723 39.7749
78 2 10.0161 3.53649 39.4893
79 2 8.20075 10.5899 42.7262
80 2 0.454935 2.48185 44.6163
81 2 6.10771 15.1937 40.8956
82 2 17.8776 0.473845 45.0105
83 2 3.39728 17.274 44.2609
84 2 9.09244 4.7091 44.4632
85 1 5.45428 11.9627 29.1964
86 1 9.33398 13.7353 27.7581
87 1 10.854 9.79396 29.1964
88 1 3.93432 15.904 27.7581
89 2 6.46494 14.2719 27.9644
90 2 8.32332 11.4261 28.9901
91 2 1.06528 15.3673 27.9644
92 2 2.92366 10.3306 28.9901
93 2 8.83093 16.2257 28.3713
94 2 5.95733 9.4722 28.5832
95 2 3.43127 13.4135 28.3713
96 2 0.55768 12.2844 28.5832
97 1 8.68191 11.9627 31.8441
98 1 1.76229 13.7353 30.4058
99 1 3.28225 9.79396 31.8441
100 1 7.16195 15.904 30.4058
101 2 9.69257 14.2719 30.6121
102 2 0.75163 11.4261 31.6378
103 2 4.29291 15.3673 30.6121
104 2 6.15129 10.3306 31.6378
105 2 1.25924 16.2257 31.0191
106 2 9.18496 9.4722 31.2309
107 2 6.6589 13.4135 31.0191
108 2 3.7853 12.2844 31.2309
109 1 1.14356 11.9713 34.5369
110 1 4.83761 13.6777 33.2038
111 1 6.57004 9.69618 34.3819
112 1 10.6033 16.0828 32.9623
113 2 2.073 14.0333 33.2634
114 2 3.85398 11.3433 34.0734
115 2 7.796 15.4626 33.6135
116 2 9.61374 10.2384 34.5506
117 2 4.24347 16.3592 33.6857
118 2 1.52998 9.52414 34.1389
119 2 9.78871 13.5965 33.3591
120 2 7.17337 12.285 33.7995
121 1 4.30806 12.0791 37.5698
122 1 8.02768 13.958 35.8018
123 1 9.58671 9.98003 37.1813
124 1 2.64953 15.8934 35.8758
125 2 5.0832 14.4165 35.7714
126 2 4.80705 9.41097 36.1551
127 2 14.0147 15.1395 38.5283
128 2 1.929 10.7717 37.0504
129 2 7.73723 16.2139 36.3803
130 2 3.08188 7.44161 38.5863
131 2 2.23261 13.4462 36.5529
132 2 10.3033 12.4382 36.4506
133 1 7.51296 12.0487 39.8562
134 1 0.518153 13.6858 38.5124
135 1 2.04111 9.85453 39.9185
136 1 6.35377 16.2505 38.4196
137 2 5.85064 13.7049 38.7197
138 2 14.3394 9.06926 45.2892
139 2 3.46877 14.8551 38.4538
140 2 6.86617 8.47223 44.5031
141 2 11.0567 16.4628 39.0252
142 2 4.90257 10.0757 39.4603
143 2 7.40456 11.4329 37.1026
144 2 32.0395 11.59 40.0588
145 1 10.803 12.0354 42.5494
146 1 3.93583 13.8099 40.8695
147 1 5.26934 9.3947 42.6935
148 1 9.34635 16.2771 41.2154
149 2 30.3835 13.0885 42.1275
150 2 11.087 9.51644 41.7545
151 2 8.8427 13.7655 41.6087
152 2 5.84226 12.2248 41.7555
153 2 4.85798 18.3874 39.4894
154 2 25.6569 5.952 43.8356
155 2 0.81613 17.7424 45.214
156 2 1.18191 13.0597 44.1064
157 1 3.36363 12.196 44.7286
158 1 6.96347 13.7278 43.5884
159 1 8.53082 10.1356 45.0825
160 1 1.64332 15.7434 43.5453
161 2 3.74735 16.5091 41.0968
162 2 3.40877 9.70429 44.7887
163 2 22.2455 17.2939 41.8533
164 2 5.64066 21.4377 38.8824
165 2 13.5233 10.6643 42.6321
166 2 4.37212 13.9522 43.5008
167 2 8.69878 5.41744 41.7414
168 1 5.45428 19.8452 29.1964
169 1 9.33398 21.6179 27.7581
170 1 10.854 17.6766 29.1964
171 1 3.93432 0.13874 27.7581
172 2 6.46494 22.1545 27.9644
173 2 8.32332 19.3086 28.9901
174 2 1.06528 23.2499 27.9644
175 2 2.92366 18.2132 28.9901
176 2 8.83093 0.46054 28.3713
177 2 5.95733 17.3548 28.5832
178 2 3.43127 21.2961 28.3713
179 2 0.55768 20.167 28.5832
180 1 8.68191 19.8452 31.8441
181 1 1.76229 21.6179 30.4058
182 1 3.28225 17.6766 31.8441
183 1 7.16195 0.13874 30.4058
184 2 9.69257 22.1545 30.6121
185 2 0.75163 19.3086 31.6378
186 2 4.29291 23.2499 30.6121
187 2 6.15129 18.2132 31.6378
188 2 1.25924 0.46054 31.0191
189 2 9.18496 17.3548 31.2309
190 2 6.6589 21.2961 31.0191
191 2 3.7853 20.167 31.2309
192 1 1.04345 19.9671 34.5685
193 1 5.07833 21.6454 33.2401
194 1 6.34854 17.522 34.4626
195 1 10.1877 0.18834 32.9443
196 2 2.3933 22.1407 33.0984
197 2 3.80266 19.5216 34.3497
198 2 7.12835 23.6047 33.0957
199 2 9.16361 18.4957 34.3202
200 2 4.29688 0.65384 33.8704
201 2 1.45393 17.4154 33.6409
202 2 9.54035 21.7162 33.7281
203 2 7.04791 20.0166 34.0821
204 1 4.03442 19.9004 37.2663
205 1 8.08948 21.5244 35.7007
206 1 9.80749 17.8905 37.1994
207 1 2.5437 23.6076 35.8327
208 2 5.26752 22.1206 35.8927
209 2 6.8882 18.846 36.6641
210 2 10.5883 23.4129 35.7698
211 2 1.69542 18.4196 37.1493
212 2 7.60413 0.423837 36.4618
213 2 4.58417 17.43 36.5793
214 2 2.05615 21.2665 36.4842
215 2 10.362 20.5697 36.3765
216 1 7.47849 20.0499 39.8964
217 1 0.370609 21.5586 38.5404
218 1 2.1229 17.5798 39.6663
219 1 5.83034 0.359993 38.271
220 2 17.2865 18.7643 45.7622
221 2 15.9888 18.2574 39.9776
222 2 30.9058 20.1417 44.2086
223 2 0.496462 1.41081 41.9268
224 2 3.77021 0.524985 41.5033
225 2 6.70877 16.2111 43.8907
226 2 11.5102 2.28497 44.7732
227 2 32.3432 16.3691 39.1462
228 1 10.4328 20.2046 42.9392
229 1 3.75317 21.6633 41.2275
230 1 5.2687 17.8058 42.5279
231 1 9.29062 0.0961838 41.0723
232 2 6.10315 4.10663 42.1013
233 2 28.0517 19.223 44.8489
234 2 8.56464 22.2758 38.97
235 2 2.55863 11.3057 42.0964
236 2 8.39545 20.0846 44.7229
237 2 22.218 18.9432 45.1241
238 2 10.8555 18.442 45.1898
239 2 0.49539 21.7264 41.3539
240 1 2.84287 19.6201 45.067
241 1 6.76882 21.5186 43.7614
242 1 8.40935 17.5355 45.1648
243 1 1.49512 23.5582 43.5491
244 2 2.78936 19.1829 42.1915
245 2 30.452 4.42351 44.491
246 2 1.21515 21.1021 44.3956
247 2 18.0761 16.0915 44.4372
248 2 0.969423 5.18094 44.9653
249 2 28.1177 16.2514 44.9114
250 2 31.3417 15.6751 43.7371
251 2 2.5103 20.2692 39.2482
252 1 16.2536 4.08007 29.1964
253 1 20.1333 5.85267 27.7581
254 1 21.6533 1.91139 29.1964
255 1 14.7337 8.02136 27.7581
256 2 17.2643 6.38929 27.9644
257 2 19.1227 3.54345 28.9901
258 2 11.8646 7.48474 27.9644
259 2 13.723 2.448 28.9901
260 2 19.6303 8.34312 28.3713
261 2 16.7567 1.58963 28.5832
262 2 14.2306 5.53091 28.3713
263 2 11.357 4.40183 28.5832
264 1 19.4813 4.08007 31.8441
265 1 12.5616 5.85267 30.4058
266 1 14.0816 1.91139 31.8441
267 1 17.9613 8.02136 30.4058
268 2 20.4919 6.38929 30.6121
269 2 11.551 3.54345 31.6378
270 2 15.0923 7.48474 30.6121
271 2 16.9506 2.448 31.6378
272 2 12.0586 8.34312 31.0191
273 2 19.9843 1.58963 31.2309
274 2 17.4582 5.53091 31.0191
275 2 14.5847 4.40183 31.2309
276 1 11.8911 4.149 34.4898
277 1 15.6402 5.62758 33.0351
278 1 17.3264 1.83124 34.6594
279 1 21.1086 8.13587 33.1367
280 2 12.886 6.68387 33.3186
281 2 14.362 3.23065 34.2283
282 2 18.5495 7.60285 33.5835
283 2 19.9695 2.41649 33.876
284 2 15.3759 8.2809 33.7428
285 2 12.3155 1.5382 34.0951
286 2 20.6573 5.55843 33.8462
287 2 17.8033 4.13586 34.1309
288 1 15.1879 4.29701 37.4057
289 1 19.1267 5.64443 35.8638
290 1 20.5764 1.88624 37.2758
291 1 13.5857 8.04707 35.8327
292 2 16.5814 6.4781 35.7746
293 2 17.5611 3.34564 37.1682
294 2 21.3951 8.09211 35.828
295 2 9.88947 23.191 43.921
296 2 18.4715 8.31437 36.6694
297 2 12.9626 2.95569 37.4179
298 2 13.2817 5.73615 36.0571
299 2 20.9758 4.28114 36.8651
300 1 18.3019 4.14244 40.1036
301 1 11.4398 5.70141 38.2622
302 1 12.9745 1.8345 39.8998
303 1 16.8845 7.84874 38.664
304 2 18.9352 6.24181 38.6437
305 2 28.1566 8.50416 44.4444
306 2 13.879 7.01096 38.6776
307 2 14.0142 22.9913 38.5269
308 2 22.4772 9.52842 42.2273
309 2 18.9009 1.78325 39.4196
310 2 16.2878 5.48212 39.2795
311 2 10.5926 7.91881 38.9881
312 1 21.6392 4.20757 43.0632
313 1 14.5679 5.41208 41.0934
314 1 16.1152 1.50588 43.1549
315 1 19.924 7.91749 41.4876
316 2 12.8764 21.4829 43.1128
317 2 18.8149 2.63052 42.874
318 2 12.1823 6.76882 41.0142
319 2 16.3475 3.86815 42.3686
320 2 14.1788 7.94554 41.4474
321 2 6.87906 0.431108 44.825
322 2 20.8701 11.4433 39.4874
323 2 20.0822 21.6003 42.0648
324 1 13.9644 4.12116 44.8528
325 1 17.8242 5.64235 43.8195
326 1 19.7471 2.02484 45.6782
327 1 12.2835 8.14773 43.468
328 2 15.727 2.84753 39.6349
329 2 14.1536 0.501904 41.5556
330 2 17.3271 7.19003 41.2495
331 2 14.2988 1.89985 44.6657
332 2 10.0096 11.7168 39.1489
333 2 9.54386 15.6236 43.8938
334 2 9.10085 12.4122 44.5512
335 2 12.3507 5.68972 43.8344
336 1 16.2536 11.9627 29.1964
337 1 20.1333 13.7353 27.7581
338 1 21.6533 9.79396 29.1964
339 1 14.7337 15.904 27.7581
340 2 17.2643 14.2719 27.9644
341 2 19.1227 11.4261 28.9901
342 2 11.8646 15.3673 27.9644
343 2 13.723 10.3306 28.9901
344 2 19.6303 16.2257 28.3713
345 2 16.7567 9.4722 28.5832
346 2 14.2306 13.4135 28.3713
347 2 11.357 12.2844 28.5832
348 1 19.4813 11.9627 31.8441
349 1 12.5616 13.7353 30.4058
350 1 14.0816 9.79396 31.8441
351 1 17.9613 15.904 30.4058
352 2 20.4919 14.2719 30.6121
353 2 11.551 11.4261 31.6378
354 2 15.0923 15.3673 30.6121
355 2 16.9506 10.3306 31.6378
356 2 12.0586 16.2257 31.0191
357 2 19.9843 9.4722 31.2309
358 2 17.4582 13.4135 31.0191
359 2 14.5847 12.2844 31.2309
360 1 11.9404 12.0263 34.6015
361 1 15.8422 13.7638 33.2491
362 1 17.1879 9.73558 34.4949
363 1 21.2191 15.8772 33.1303
364 2 13.023 14.5115 33.4146
365 2 15.1629 11.5366 34.0571
366 2 18.333 15.6982 33.4435
367 2 19.8897 10.34 34.473
368 2 15.4024 16.3734 33.8684
369 2 12.5418 9.77832 33.6982
370 2 20.8936 13.625 33.9465
371 2 17.8723 12.6227 34.2156
372 1 15.1006 12.0306 37.3332
373 1 19.225 13.8705 36.0423
374 1 20.6051 10.0817 37.2549
375 1 13.7178 15.8963 35.7431
376 2 15.7504 14.2461 36.0083
377 2 15.8071 10.3014 40.0785
378 2 21.4143 15.7301 35.9449
379 2 12.6353 10.3699 36.8828
380 2 19.3166 14.5004 38.9102
381 2 15.6404 9.52745 36.911
382 2 10.4236 15.3493 35.3699
383 2 19.2293 9.36879 39.0857
384 1 18.242 12.0003 40.1678
385 1 11.3983 13.7873 38.5495
386 1 12.9357 9.3546 39.7341
387 1 16.7081 15.773 38.6155
388 2 15.9781 13.3236 39.3842
389 2 17.8677 11.696 37.2386
390 2 13.1915 13.2582 36.5125
391 2 22.5099 6.30718 41.6328
392 2 21.4232 12.7831 36.8004
393 2 17.8665 8.17244 44.39
394 2 12.8412 12.1137 39.6391
395 2 14.2381 19.2131 42.8525
396 1 22.0257 12.023 42.8555
397 1 14.536 13.2927 41.5017
398 1 16.2731 9.3561 42.8061
399 1 20.1727 15.95 41.1851
400 2 11.73 14.5186 41.2299
401 2 5.65164 19.0656 44.8416
402 2 23.2803 10.4393 37.2457
403 2 22.4264 10.1841 45.1127
404 2 26.09 21.7013 44.4824
405 2 10.8112 0.566649 39.1898
406 2 10.3953 19.3301 39.5877
407 2 6.25196 11.6506 44.8136
408 1 14.133 11.5337 45.1222
409 1 17.8974 13.7094 44.1769
410 1 19.5656 9.87023 45.1683
411 1 12.5751 16.1906 43.6813
412 2 18.6809 10.1117 42.3525
413 2 16.9248 20.1798 41.9414
414 2 20.8235 7.80858 43.9108
415 2 25.4678 17.6347 45.3066
416 2 17.2772 15.1375 41.6572
417 2 7.77112 9.38655 39.5823
418 2 11.3802 17.8756 41.9653
419 1 16.2536 19.8452 29.1964
420 1 20.1333 21.6179 27.7581
421 1 21.6533 17.6766 29.1964
422 1 14.7337 0.13874 27.7581
423 2 17.2643 22.1545 27.9644
424 2 19.1227 19.3086 28.9901
425 2 11.8646 23.2499 27.9644
426 2 13.723 18.2132 28.9901
427 2 19.6303 0.46054 28.3713
428 2 16.7567 17.3548 28.5832
429 2 14.2306 21.2961 28.3713
430 2 11.357 20.167 28.5832
431 1 19.4813 19.8452 31.8441
432 1 12.5616 21.6179 30.4058
433 1 14.0816 17.6766 31.8441
434 1 17.9613 0.13874 30.4058
435 2 20.4919 22.1545 30.6121
436 2 11.551 19.3086 31.6378
437 2 15.0923 23.2499 30.6121
438 2 16.9506 18.2132 31.6378
439 2 12.0586 0.46054 31.0191
440 2 19.9843 17.3548 31.2309
441 2 17.4582 21.2961 31.0191
442 2 14.5847 20.167 31.2309
443 1 11.761 19.9516 34.4249
444 1 15.8415 21.7915 33.1225
445 1 17.1799 17.9443 34.5693
446 1 21.0252 23.6407 33.1403
447 2 12.6824 21.9557 33.1466
448 2 14.5626 19.7604 34.5269
449 2 18.4618 23.1902 32.8725
450 2 20.1692 18.3758 34.2519
451 2 15.1921 0.55524 33.7813
452 2 12.4644 17.3951 33.7608
453 2 20.4746 21.3163 33.8363
454 2 17.9306 20.3248 33.9991
455 1 15.0288 19.9375 37.2506
456 1 18.9957 21.649 35.9737
457 1 20.5221 17.6998 37.3525
458 1 13.5807 0.2331 35.8167
459 2 15.9627 22.2206 35.721
460 2 18.2215 16.2761 36.4152
461 2 21.368 23.4283 35.9742
462 2 12.6222 18.4952 37.0491
463 2 18.3709 0.408248 36.562
464 2 18.1723 19.0281 37.0511
465 2 13.1113 21.1763 36.5103
466 2 21.154 20.0473 37.0687
467 1 18.6351 19.8076 39.8278
468 1 11.553 21.6598 38.4842
469 1 12.9653 17.6981 39.7815
470 1 16.8255 0.508449 38.7219
471 2 15.0986 13.7986 44.544
472 2 16.7074 12.0129 42.6854
473 2 15.6246 1.76607 36.6644
474 2 18.7199 17.1086 39.4929
475 2 22.03 0.570968 39.1254
476 2 5.72544 20.1754 42.0214
477 2 16.5726 21.2079 39.2056
478 2 13.4657 20.093 39.217
479 1 22.1282 19.9746 42.3763
480 1 14.8806 21.5079 41.3294
481 1 16.7234 17.6626 42.8438
482 1 20.0317 0.464006 41.1832
483 2 6.59267 23.3991 41.691
484 2 20.5292 23.5108 43.8492
485 2 19.4285 22.0563 38.7946
486 2 13.3622 2.89253 42.323
487 2 15.1106 16.1946 45.2909
488 2 8.70449 21.1307 41.8557
489 2 21.2398 19.178 39.9922
490 2 15.4814 17.4967 36.3218
491 1 14.6081 19.8933 45.1715
492 1 18.0936 21.5215 43.7192
493 1 19.5775 17.8568 45.3027
494 1 12.3669 0.164504 43.7023
495 2 11.4416 22.0225 41.1085
496 2 3.93345 21.9118 44.0168
497 2 8.58036 14.4542 38.309
498 2 32.1836 18.8763 39.7204
499 2 19.7314 4.39742 45.2
500 2 22.2138 1.55457 42.3042
501 2 12.7297 13.599 43.9803
502 2 27.5346 19.9035 42.0007
503 1 27.0529 4.08007 29.1964
504 1 30.9326 5.85267 27.7581
505 1 0.054618 1.91139 29.1964
506 1 25.533 8.02136 27.7581
507 2 28.0636 6.38929 27.9644
508 2 29.922 3.54345 28.9901
509 2 22.664 7.48474 27.9644
510 2 24.5223 2.448 28.9901
511 2 30.4296 8.34312 28.3713
512 2 27.556 1.58963 28.5832
513 2 25.0299 5.53091 28.3713
514 2 22.1563 4.40183 28.5832
515 1 30.2806 4.08007 31.8441
516 1 23.361 5.85267 30.4058
517 1 24.8809 1.91139 31.8441
518 1 28.7606 8.02136 30.4058
519 2 31.2912 6.38929 30.6121
520 2 22.3503 3.54345 31.6378
521 2 25.8916 7.48474 30.6121
522 2 27.75 2.448 31.6378
523 2 22.8579 8.34312 31.0191
524 2 30.7836 1.58963 31.2309
525 2 28.2576 5.53091 31.0191
526 2 25.384 4.40183 31.2309
527 1 22.7946 4.09283 34.4156
528 1 26.5748 5.92896 33.0109
529 1 27.9914 1.69012 34.3315
530 1 31.9617 8.1241 33.0362
531 2 23.5981 6.12958 33.2102
532 2 25.6017 3.30883 34.2552
533 2 29.3409 7.73408 33.3892
534 2 31.0673 2.08396 34.1509
535 2 26.4489 8.29567 33.4439
536 2 22.8002 1.70027 33.8489
537 2 31.3401 5.78151 33.6973
538 2 28.611 4.45536 33.8052
539 1 25.7436 4.15635 37.1568
540 1 29.5394 6.13951 36.0051
541 1 31.0657 2.07642 36.6911
542 1 24.1962 8.17808 36.0317
543 2 26.374 6.34971 35.7372
544 2 31.4551 4.49987 36.2508
545 2 32.0485 7.44385 36.1585
546 2 23.6195 2.35582 36.9469
547 2 29.4402 8.47832 36.787
548 2 26.2431 1.33507 36.9268
549 2 23.7767 5.86749 36.4533
550 2 30.2358 5.33546 42.0328
551 1 29.1592 4.04025 39.6437
552 1 22.0459 5.76689 38.7189
553 1 23.9398 1.87548 40.0792
554 1 27.4866 8.48824 38.6849
555 2 27.6383 5.92185 38.3543
556 2 0.0312218 9.84028 44.5201
557 2 24.9649 7.94243 38.5549
558 2 27.9485 3.8744 45.0374
559 2 26.7662 10.7815 40.0068
560 2 24.8456 8.47876 41.7868
561 2 24.3299 12.4106 39.3903
562 2 24.2967 4.48004 39.1589
563 1 0.0817907 4.05967 42.8352
564 1 25.6013 5.81476 41.1797
565 1 26.9495 1.95317 42.6515
566 1 30.6851 7.83915 41.2516
567 2 3.45925 1.68615 44.6462
568 2 25.0199 0.485916 41.957
569 2 28.6761 3.84888 36.9014
570 2 21.7467 3.5474 39.5894
571 2 25.87 14.1376 44.374
572 2 22.97 14.3952 41.8732
573 2 1.64329 5.92001 41.9665
574 2 22.1842 2.39981 45.6562
575 1 25.0275 3.95185 45.1834
576 1 28.6737 5.87906 43.8132
577 1 30.2339 2.02309 45.0868
578 1 23.5737 7.74952 43.7195
579 2 0.45319 9.13618 41.967
580 2 27.5294 4.43117 41.8255
581 2 27.8014 12.2734 42.123
582 2 17.2774 -0.0112034 41.129
583 2 23.2416 13.2793 44.4554
584 2 7.94914 18.4881 42.329
585 2 19.7263 5.36591 41.5493
586 2 29.9149 2.36158 42.2509
587 1 27.0529 11.9627 29.1964
588 1 30.9326 13.7353 27.7581
589 1 0.054618 9.79396 29.1964
590 1 25.533 15.904 27.7581
591 2 28.0636 14.2719 27.9644
592 2 29.922 11.4261 28.9901
593 2 22.664 15.3673 27.9644
594 2 24.5223 10.3306 28.9901
595 2 30.4296 16.2257 28.3713
596 2 27.556 9.4722 28.5832
597 2 25.0299 13.4135 28.3713
598 2 22.1563 12.2844 28.5832
599 1 30.2806 11.9627 31.8441
600 1 23.361 13.7353 30.4058
601 1 24.8809 9.79396 31.8441
602 1 28.7606 15.904 30.4058
603 2 31.2912 14.2719 30.6121
604 2 22.3503 11.4261 31.6378
605 2 25.8916 15.3673 30.6121
606 2 27.75 10.3306 31.6378
607 2 22.8579 16.2257 31.0191
608 2 30.7836 9.4722 31.2309
609 2 28.2576 13.4135 31.0191
610 2 25.384 12.2844 31.2309
611 1 22.9371 12.0059 34.6837
612 1 26.6502 13.7193 33.2317
613 1 28.2622 9.79486 34.5387
614 1 31.6468 16.1013 33.1289
615 2 23.8474 13.8613 33.4819
616 2 25.8675 11.1076 34.7074
617 2 28.8433 14.963 33.4463
618 2 30.9793 10.6039 34.5107
619 2 25.9898 16.1712 33.4744
620 2 23.3381 9.43404 34.2491
621 2 31.3093 13.2839 33.7597
622 2 28.6579 12.3755 33.8998
623 1 25.9056 11.9637 37.1988
624 1 29.9108 13.7398 35.7684
625 1 31.4855 9.94171 37.3382
626 1 24.4854 15.983 35.8094
627 2 27.0999 15.0433 36.0377
628 2 28.4319 11.2927 36.9841
629 2 32.3604 15.607 35.7875
630 2 25.8697 9.41823 36.943
631 2 29.4796 16.3556 36.0074
632 2 29.5867 9.29225 39.4809
633 2 23.7036 13.7388 36.4986
634 2 31.7569 12.3345 36.7716
635 1 29.1689 11.9242 40.0672
636 1 22.3658 13.8483 38.861
637 1 23.7032 9.81078 39.9408
638 1 27.7169 15.8934 38.5557
639 2 1.23624 14.0169 41.5418
640 2 30.4696 12.3642 44.6728
641 2 22.1922 16.3771 39.0438
642 2 27.6459 13.3358 38.9614
643 2 2.54529 12.6555 39.2823
644 2 31.0216 7.45928 44.0687
645 2 28.1679 15.5061 41.8841
646 2 21.8736 8.08168 39.3599
647 1 32.2283 11.7067 42.7463
648 1 25.5975 13.6795 41.4772
649 1 26.9379 9.88086 42.8023
650 1 30.8043 15.7539 41.2969
651 2 19.8598 12.456 44.723
652 2 16.5921 10.874 45.4881
653 2 27.537 7.17389 41.3241
654 2 6.11845 3.77569 45.3652
655 2 26.4255 17.5676 36.6727
656 2 14.3823 16.0227 41.51
657 2 30.2191 14.3004 38.9951
658 2 24.8862 16.1842 42.0634
659 1 24.7258 11.7784 45.5677
660 1 28.5287 13.6055 44.0822
661 1 29.9906 9.86243 45.0368
662 1 23.4865 16.006 44.1544
663 2 24.7834 11.3795 42.4306
664 2 25.0989 9.49558 44.6745
665 2 29.7217 9.83814 42.2589
666 2 19.0286 18.4488 42.0827
667 2 30.5521 6.26266 39.1328
668 2 8.09187 17.6472 39.203
669 2 26.706 17.9749 39.9839
670 2 27.8496 11.4366 44.8083
671 1 27.0529 19.8452 29.1964
672 1 30.9326 21.6179 27.7581
673 1 0.054618 17.6766 29.1964
674 1 25.533 0.13874 27.7581
675 2 28.0636 22.1545 27.9644
676 2 29.922 19.3086 28.9901
677 2 22.664 23.2499 27.9644
678 2 24.5223 18.2132 28.9901
679 2 30.4296 0.46054 28.3713
680 2 27.556 17.3548 28.5832
681 2 25.0299 21.2961 28.3713
682 2 22.1563 20.167 28.5832
683 1 30.2806 19.8452 31.8441
684 1 23.361 21.6179 30.4058
685 1 24.8809 17.6766 31.8441
686 1 28.7606 0.13874 30.4058
687 2 31.2912 22.1545 30.6121
688 2 22.3503 19.3086 31.6378
689 2 25.8916 23.2499 30.6121
690 2 27.75 18.2132 31.6378
691 2 22.8579 0.46054 31.0191
692 2 30.7836 17.3548 31.2309
693 2 28.2576 21.2961 31.0191
694 2 25.384 20.167 31.2309
695 1 22.5568 19.7847 34.5304
696 1 26.3394 21.6039 32.9419
697 1 27.8923 17.6189 34.5022
698 1 32.0257 0.18854 33.0177
699 2 23.6207 21.8242 33.1524
700 2 25.42 19.2315 34.6172
701 2 28.9778 23.1771 33.4159
702 2 30.8049 18.5641 34.3841
703 2 25.9092 0.48304 33.7498
704 2 23.2187 17.4514 33.7126
705 2 31.7949 21.3437 33.4638
706 2 28.3447 20.2559 33.9688
707 1 25.7106 19.7654 37.2435
708 1 29.7094 21.5752 35.4625
709 1 31.3368 17.8865 37.0047
710 1 24.3438 0.0763922 35.8469
711 2 26.4039 21.9785 35.9631
712 2 28.4109 19.3286 36.994
713 2 32.2522 0.158575 35.7125
714 2 24.7655 15.3353 38.5482
715 2 28.6443 0.0867055 36.1764
716 2 23.447 18.2142 36.5647
717 2 23.7478 21.425 36.4423
718 2 31.6292 20.3531 36.5573
719 1 29.2642 19.5537 40.198
720 1 22.264 21.6403 38.7766
721 1 24.1543 17.7416 40.1641
722 1 27.5845 23.487 38.4242
723 2 30.0964 21.569 38.4713
724 2 0.583453 16.8465 41.9078
725 2 24.428 23.227 38.9128
726 2 23.3019 21.2839 44.3162
727 2 0.179299 0.484064 39.1594
728 2 29.7012 17.4566 39.0724
729 2 27.1373 21.1509 39.5475
730 2 24.0425 20.1079 40.2417
731 1 0.0647309 19.617 42.5317
732 1 25.5717 21.5179 41.7163
733 1 26.9675 17.5076 43.0314
734 1 30.8213 0.207952 41.0066
735 2 22.6002 22.1815 41.4353
736 2 31.622 3.82531 39.754
737 2 29.7161 1.00162 38.8843
738 2 20.7398 15.7851 44.2633
739 2 26.5373 2.74793 39.8062
740 2 23.2577 5.56832 44.8882
741 2 28.3375 0.463091 44.2416
742 2 27.685 23.1799 41.5087
743 1 24.8272 20.0065 45.6461
744 1 28.7188 21.3983 43.6301
745 1 30.3421 17.7672 45.0265
746 1 23.3188 0.164966 43.8554
747 2 29.9424 17.7905 42.5807
748 2 30.6023 21.2274 41.8962
749 2 4.15214 6.27232 44.1984
750 2 25.1344 19.0717 42.6273
751 2 24.5215 3.36024 42.8217
752 2 20.0851 13.249 41.5774
753 2 25.188 1.59538 44.513
754 2 16.918 3.92474 45.5908
755 3 17.5344 19.4773 45.052
756 3 14.7675 17.1014 45.2418
757 2 14.2445 17.1841 46.166
758 2 14.9991 22.2214 43.8734
759 2 16.93536 10.00742 49.59381
760 2 16.81895 10.66634 49.64524
