# LAMMPS data file
1152 atoms
3 atom types
0.0 27.899443 xlo xhi
0.0 25.671386 ylo yhi
0.0 32.263043 zlo zhi

Atoms # atomic

1 1 1.16529 0.695078 0.478972
2 1 1.38719 0.888944 8.71038
3 1 1.31374 4.82701 0.295041
4 1 1.43082 4.92637 8.18446
5 1 1.52978 9.34118 0.573209
6 1 0.87759 10.0597 8.20043
7 1 7.59578 0.68429 0.3688
8 1 8.51569 0.743933 8.40303
9 1 8.46467 5.22109 0.889725
10 1 8.75981 5.29102 8.5121
11 1 8.64985 9.62169 0.453126
12 1 8.41619 9.14492 8.40122
13 1 5.01256 2.66368 7.0688
14 1 4.64593 2.95823 15.1564
15 1 5.14007 7.4878 6.70521
16 1 4.39006 6.92397 15.0575
17 1 4.91921 11.4127 6.98174
18 1 4.89877 11.1032 14.6897
19 1 11.7511 2.88987 6.74032
20 1 11.6779 2.83535 15.022
21 1 11.732 7.18711 6.5956
22 1 11.6315 7.0944 14.6938
23 1 12.3305 11.4466 6.83742
24 1 11.7002 11.4031 14.5958
25 1 1.47397 3.32603 4.86964
26 1 1.6695 2.8903 12.6642
27 1 1.44681 7.22671 4.61563
28 1 1.93642 6.88165 12.362
29 1 1.34591 11.5506 4.54569
30 1 1.66421 11.1196 12.5681
31 1 8.24665 2.97149 4.66709
32 1 8.43032 2.71577 12.333
33 1 8.68056 7.52695 4.17513
34 1 7.91144 6.90035 12.3506
35 1 8.28879 11.486 4.70599
36 1 8.01718 11.2973 12.2381
37 1 4.56833 0.80943 2.89492
38 1 4.67511 0.744324 10.6142
39 1 4.82434 5.20377 2.73982
40 1 5.14351 4.79755 10.5302
41 1 5.01091 9.34987 3.29924
42 1 4.76796 8.64662 10.7768
43 1 11.8626 0.9935 2.88541
44 1 12.1824 0.627163 10.5809
45 1 12.0585 5.0753 2.62272
46 1 12.0032 5.1221 11.2508
47 1 12.0827 9.25151 2.42013
48 1 11.634 9.60418 10.7797
49 2 10.2099 9.44976 29.4316
50 2 21.8025 2.83647 14.9281
51 2 23.912 14.9087 17.8672
52 2 7.76154 13.0347 18.6556
53 2 16.8452 24.1523 25.096
54 2 13.7781 11.1193 25.9952
55 2 9.1779 2.70506 31.3151
56 2 19.2952 24.0023 20.4443
57 2 13.4807 0.677451 13.4248
58 2 6.83199 11.3417 17.5465
59 2 22.2448 21.9052 19.1251
60 2 20.8396 13.6494 30.2338
61 2 25.7891 11.2794 20.9944
62 2 17.0121 4.55506 22.7984
63 2 2.17857 0.264877 11.1621
64 2 14.0899 2.96945 22.9754
65 2 25.3277 4.53931 24.4489
66 2 10.7523 17.7986 0.132176
67 2 5.79341 0.603753 8.40565
68 2 18.1697 21.9117 24.2935
69 2 6.57318 15.8963 2.10176
70 2 21.8055 24.5218 7.08702
71 2 24.2518 17.5409 21.5343
72 2 0.131041 16.091 6.97931
73 2 17.4741 0.67541 28.7672
74 2 -0.355188 13.1412 22.1192
75 2 3.08072 19.9926 10.5437
76 2 16.0758 9.01037 27.1277
77 2 3.50901 10.8178 17.9454
78 2 1.85331 2.67987 31.3834
79 2 23.1039 22.0935 2.91476
80 2 14.9845 24.158 23.3381
81 2 9.94312 7.59551 1.95481
82 2 16.6753 23.9964 17.1862
83 2 -0.116769 6.94053 25.941
84 2 16.0121 7.30181 6.90641
85 2 4.35361 0.347947 24.4089
86 2 12.5479 15.2224 20.2818
87 2 17.1842 15.2113 2.0163
88 2 17.1941 4.87835 4.40958
89 2 0.890555 7.36475 7.37641
90 2 24.0061 2.8799 8.91507
91 2 13.8362 3.16033 1.28338
92 2 23.2355 20.1254 6.89371
93 2 10.4928 24.2172 9.25831
94 2 17.424 13.4949 5.53806
95 2 10.2826 17.5499 21.3221
96 2 11.2648 0.866366 8.53932
97 2 21.6468 21.8393 26.9966
98 2 20.4794 15.6861 0.240819
99 2 6.57123 4.56719 12.9938
100 2 23.3416 23.9414 15.1838
101 2 14.4019 23.7506 15.5944
102 2 15.8453 8.77573 19.2107
103 2 27.4599 15.7957 25.3383
104 2 0.556103 22.1153 3.12957
105 2 20.308 20.0994 17.1215
106 2 9.58981 20.2462 18.2603
107 2 13.3315 15.7044 1.38992
108 2 16.9979 19.745 18.6767
109 2 9.72398 4.65721 13.725
110 2 5.29256 24.273 3.91617
111 2 13.692 21.8119 22.4107
112 2 20.4943 19.5583 9.31106
113 2 13.6156 19.9894 26.132
114 2 26.0342 24.2549 4.40198
115 2 25.9794 11.5425 4.02331
116 2 6.70415 4.54894 7.292
117 2 6.16229 21.813 16.5276
118 2 24.0501 5.07936 5.98392
119 2 5.74128 11.3878 4.54031
120 2 20.2271 2.41269 24.9538
121 2 10.2335 2.33531 17.314
122 2 0.622997 9.60687 19.2185
123 2 10.3284 9.47619 5.49997
124 2 8.77479 0.608233 19.0732
125 2 15.8394 22.3377 26.9586
126 2 3.08481 20.062 26.3257
127 2 19.283 11.3818 28.0565
128 2 24.1853 21.9583 13.549
129 2 7.29307 5.46259 3.16817
130 2 19.578 8.60543 24.483
131 2 6.64692 11.4396 1.31388
132 2 1.15957 24.028 31.1763
133 2 9.82574 5.2464 30.3534
134 2 6.834 14.1534 13.3306
135 2 3.50363 24.4059 25.366
136 2 2.31646 3.01984 17.7281
137 2 23.8039 8.5618 14.1893
138 2 3.96909 5.26469 13.3727
139 3 3.15936 4.78404 13.8395
140 3 3.02775 2.83954 16.9957
141 3 6.90332 13.4999 14.0843
142 3 24.357 8.79018 13.3759
143 3 2.68892 24.033 26.0338
144 3 9.8684 5.4641 29.3357
145 1 1.28406 0.561799 16.1319
146 1 1.08436 0.42566 24.8467
147 1 1.3193 4.85143 16.3563
148 1 1.38313 4.86076 24.3943
149 1 1.31219 9.305 16.6108
150 1 1.3944 9.09885 24.8965
151 1 8.18815 0.623582 16.4063
152 1 8.14766 0.614421 24.7201
153 1 8.34583 4.5701 16.5495
154 1 8.05538 4.63651 24.7467
155 1 8.37714 8.86056 15.7882
156 1 8.31874 8.95263 24.8872
157 1 4.56585 2.74592 22.895
158 1 4.74829 2.87646 31.2732
159 1 4.69999 7.1937 23.1481
160 1 5.20878 7.25895 31.1857
161 1 4.56859 11.3703 22.882
162 1 4.59634 11.2364 31.3268
163 1 11.6735 2.59734 22.5413
164 1 11.455 3.06387 30.8587
165 1 11.6152 6.86899 22.6568
166 1 11.5455 7.0203 30.7577
167 1 11.8259 11.4681 22.4808
168 1 11.5649 11.4973 30.807
169 1 1.31405 2.55721 20.5783
170 1 1.49672 2.32143 28.2736
171 1 1.08422 7.44432 21.2206
172 1 1.7142 7.03203 28.8989
173 1 1.34528 11.2936 20.6899
174 1 1.30678 11.3312 28.7822
175 1 7.89301 2.72151 20.7625
176 1 8.03596 2.99226 28.7757
177 1 8.09552 6.8291 21.047
178 1 8.18471 7.27056 28.74
179 1 8.14101 11.0947 20.6625
180 1 8.09406 11.6858 28.9379
181 1 4.9366 0.650739 18.9188
182 1 4.8899 0.561566 26.9651
183 1 4.7533 4.51386 18.8496
184 1 4.64214 4.99903 27.0348
185 1 5.02111 8.83591 18.8493
186 1 4.71956 9.32044 26.9285
187 1 11.4995 0.563549 19.0116
188 1 11.9423 0.636927 26.6209
189 1 11.6628 4.76102 18.9306
190 1 11.7147 5.03597 27.4575
191 1 11.6405 8.54416 18.875
192 1 11.6481 9.42254 27.0157
193 2 23.8387 11.4573 18.7221
194 2 13.3901 15.7754 25.2493
195 2 0.549124 0.903017 3.22019
196 2 17.0687 2.34135 2.35226
197 2 22.9491 15.3708 14.9671
198 2 2.62235 0.517308 29.4087
199 2 3.45086 12.5292 8.83997
200 2 24.3763 17.5568 29.3837
201 2 11.1093 19.848 4.38586
202 2 13.6125 20.1387 17.2967
203 2 27.5113 0.179046 14.0373
204 2 26.7199 4.32805 16.5776
205 2 7.92251 15.4552 30.8991
206 2 4.89223 20.5014 28.5506
207 2 17.0467 9.27575 13.1307
208 2 -0.223386 23.7998 10.1174
209 2 16.9692 11.1152 9.70894
210 2 2.23997 10.999 15.1132
211 2 3.40709 13.757 4.7018
212 2 24.314 22.9046 5.29834
213 2 11.8469 2.75044 12.0435
214 2 16.2102 24.3649 31.1018
215 2 14.9246 22.248 19.0487
216 2 6.30968 17.6523 21.6583
217 2 5.6388 11.2548 28.5065
218 2 21.4817 0.430525 27.3987
219 2 22.4569 12.9091 27.0072
220 2 8.51496 18.8781 2.53624
221 2 20.9099 17.8719 13.2307
222 2 26.2362 15.2475 20.1259
223 2 13.17 19.6782 1.39689
224 2 24.0952 15.8379 1.53919
225 2 13.2012 22.2132 30.4527
226 2 18.5644 0.901139 -0.00935487
227 2 25.9129 9.03179 24.746
228 2 24.6791 18.3971 25.1548
229 2 7.74476 19.5228 23.5694
230 2 2.85081 22.401 29.1482
231 2 0.831981 21.7002 19.2496
232 2 13.2822 19.5355 9.94795
233 2 0.651172 9.48826 2.9444
234 2 16.0274 16.1148 6.84262
235 2 -0.246315 16.1345 0.615118
236 2 10.1352 11.4845 1.58411
237 2 20.5755 10.544 18.571
238 2 16.9832 17.6837 11.1179
239 2 16.8768 13.28 21.2591
240 2 21.6207 20.0256 31.4145
241 2 1.02944 22.0665 11.2503
242 2 -0.0394697 18.1504 29.7542
243 2 20.1279 9.17034 14.2903
244 2 2.76281 15.5555 7.17573
245 2 9.96828 17.673 29.2499
246 2 27.3164 24.069 0.779724
247 2 19.0896 24.1389 28.0772
248 2 18.2685 17.5827 8.54326
249 2 8.84389 6.67598 14.9564
250 2 22.3694 19.5657 22.8034
251 2 13.7379 9.39137 29.6142
252 2 10.1618 17.7036 5.49654
253 2 9.04125 7.31182 6.6075
254 2 17.4418 17.3989 14.6277
255 2 27.1937 6.60326 12.1622
256 2 23.9778 20.231 10.31
257 2 7.15904 5.38939 27.7691
258 2 6.98385 0.211569 21.5278
259 2 19.5422 2.72094 28.2643
260 2 12.8983 17.6154 4.75908
261 2 21.3664 8.7145 30.2012
262 2 6.03158 17.4825 15.9133
263 2 13.0098 8.54109 21.1884
264 2 6.5112 2.86387 9.90035
265 2 12.5122 11.1329 4.0647
266 2 13.9396 22.239 3.22921
267 2 2.48627 23.9633 2.27448
268 2 27.1065 19.5478 0.961865
269 2 9.1626 11.5475 31.0174
270 2 1.24497 13.7255 11.2305
271 2 21.6097 22.3784 11.0059
272 2 13.787 13.6752 5.95393
273 2 6.69744 17.9201 5.69522
274 2 2.81541 11.3471 26.8375
275 2 26.6605 15.7345 4.02281
276 2 10.1061 16.0756 26.1517
277 2 2.82961 19.9187 18.0868
278 2 5.91952 8.70645 13.063
279 2 5.79037 2.49556 25.9858
280 2 13.3212 7.27918 25.6412
281 2 2.74058 22.7038 13.8691
282 2 2.60878 7.33495 18.5336
283 3 2.86088 7.0138 17.6494
284 3 13.3128 7.26857 26.6331
285 3 6.78536 9.1968 12.7269
286 3 3.4554 21.8664 13.9791
287 3 6.75938 2.69406 26.1289
288 3 3.58815 19.7675 17.4763
289 1 1.39749 13.9178 0.327959
290 1 1.15654 13.7517 8.74493
291 1 1.58869 17.9172 0.0504799
292 1 1.66507 17.6394 8.1777
293 1 1.16384 21.8293 0.412272
294 1 0.864812 21.914 8.36667
295 1 7.89298 13.3913 0.523809
296 1 8.38385 13.7364 8.87605
297 1 8.21897 17.5348 0.257718
298 1 8.54534 17.6893 8.94256
299 1 8.6695 22.0122 -0.0645532
300 1 8.32089 22.1348 8.34259
301 1 5.21248 15.8738 7.04621
302 1 4.86191 15.3707 14.9302
303 1 5.0306 20.17 6.90774
304 1 4.73869 19.9469 15.1744
305 1 4.54641 24.4406 6.82506
306 1 5.17932 24.0982 14.9524
307 1 11.7282 15.4478 6.30622
308 1 12.265 15.5825 15.1561
309 1 11.835 19.326 6.68212
310 1 12.5863 19.6338 14.6958
311 1 11.651 24.2102 6.59838
312 1 12.1164 24.0432 14.5953
313 1 1.42328 15.744 4.5887
314 1 1.39032 16.1216 12.4027
315 1 1.59191 20.0878 4.57503
316 1 1.27872 20.1113 12.9403
317 1 1.16037 24.262 4.35915
318 1 0.602792 24.3529 12.4367
319 1 8.31045 16.0255 4.24123
320 1 8.69107 15.3892 12.2241
321 1 8.41145 20.1717 4.61352
322 1 8.23691 20.1091 12.607
323 1 7.7903 24.3795 4.38935
324 1 8.4187 24.4132 12.3144
325 1 4.96936 13.783 2.87764
326 1 4.60427 13.7779 10.6792
327 1 4.98808 17.9508 3.16438
328 1 4.65975 18.0082 10.928
329 1 4.71957 22.5509 2.56194
330 1 4.16451 22.2532 11.1192
331 1 11.91 13.4635 2.39438
332 1 12.5051 13.8955 10.7925
333 1 11.5036 17.4804 2.6269
334 1 11.9929 17.7306 10.688
335 1 11.5555 22.2599 2.69882
336 1 11.3081 22.0137 10.5173
337 2 17.7073 17.7802 23.9058
338 2 2.07377 11.3275 31.2791
339 2 8.91171 24.3619 6.70124
340 2 22.0539 0.588264 2.67848
341 2 15.6516 15.2148 23.6786
342 2 0.195203 0.164497 27.3125
343 2 24.3237 3.40102 2.52422
344 2 6.30394 9.30943 21.9807
345 2 27.4135 20.9008 22.1038
346 2 27.1203 5.58745 5.5045
347 2 11.2085 13.059 16.5713
348 2 20.796 7.28085 0.96219
349 2 13.027 0.757 5.46863
350 2 18.2683 13.446 7.94935
351 2 5.06286 15.8299 12.2164
352 2 8.74226 7.45791 31.2595
353 2 7.20024 1.20521 2.75882
354 2 3.05361 17.9604 29.5572
355 2 10.0247 0.546963 13.6669
356 2 -0.127217 15.1334 17.3772
357 2 20.7228 9.52637 6.23126
358 2 15.6225 19.7288 14.9837
359 2 19.674 6.46104 20.422
360 2 0.319851 11.4657 10.1776
361 2 26.3204 0.559879 -0.140107
362 2 27.1687 11.6311 26.0435
363 2 21.8512 9.18107 10.8504
364 2 13.7142 11.7132 8.98516
365 2 10.3043 13.2427 5.69909
366 2 26.5895 20.2537 12.3529
367 2 16.7244 15.3299 25.9568
368 2 12.2346 24.1621 4.22027
369 2 11.7752 5.1895 8.21842
370 2 13.7554 5.33255 5.83284
371 2 24.0768 17.8238 5.26485
372 2 19.713 14.9414 20.7645
373 2 0.984469 18.2043 2.83097
374 2 22.914 19.4663 14.9503
375 2 4.5239 20.19 4.43657
376 2 21.2058 9.52404 2.98654
377 2 21.6045 13.4661 2.89795
378 2 0.485706 13.7537 3.14217
379 2 6.64369 4.74423 22.0141
380 2 25.6726 22.008 16.4315
381 2 7.28751 22.2275 5.91688
382 2 14.9075 17.5922 19.3752
383 2 22.9054 15.414 30.6784
384 2 4.04606 11.6397 12.19
385 2 6.73582 9.54777 5.87526
386 2 23.1045 7.15455 6.80763
387 2 13.4388 13.8146 30.3496
388 2 14.1447 18.1968 12.7106
389 2 15.8148 0.557944 19.1652
390 2 3.79312 0.677017 0.48967
391 2 17.9264 13.9708 -0.266854
392 2 12.2782 -0.196123 16.6422
393 2 6.76016 4.92548 30.9599
394 2 25.0107 13.0299 15.7518
395 2 14.5674 2.5596 15.2099
396 2 12.4042 4.73897 23.8989
397 2 6.51729 6.78674 4.84517
398 2 20.5471 0.955868 30.3394
399 2 20.0243 2.23787 17.0951
400 2 14.5778 5.27769 2.57071
401 2 23.1808 15.401 23.2412
402 2 13.0976 23.6515 25.4106
403 2 12.5319 11.3003 28.5277
404 2 7.81591 11.7024 7.24946
405 2 3.37507 7.0452 26.0672
406 2 19.8445 6.83397 17.0755
407 2 0.104642 22.0614 26.6108
408 2 22.1042 6.43768 23.087
409 2 25.8979 13.695 24.48
410 2 22.0535 17.7637 11.0189
411 2 5.75504 9.44108 8.72431
412 2 7.69041 9.81445 2.98111
413 2 23.2216 15.5245 25.7824
414 2 17.0426 24.3345 2.17637
415 2 0.975885 0.953853 18.6094
416 2 12.3038 7.32553 12.3456
417 2 3.30638 17.7686 13.9456
418 2 14.4833 11.2683 23.1366
419 2 5.635 15.4206 28.434
420 2 7.56929 9.9897 27.3734
421 2 1.97338 0.682555 5.83775
422 2 2.71718 3.19454 9.99362
423 2 5.91005 1.21606 29.242
424 2 10.7696 16.0288 8.96592
425 2 24.4441 7.20956 1.35121
426 2 2.2576 14.1901 22.7994
427 3 2.00525 15.1814 23.0851
428 3 10.3156 15.3895 9.65641
429 3 3.47228 2.8229 9.37599
430 3 24.058 7.1326 2.42487
431 3 6.09507 0.911449 30.2078
432 3 2.91682 0.87896 6.37212
433 1 1.71119 13.6824 16.6405
434 1 0.985448 13.4639 24.7
435 1 1.07791 17.8029 16.3195
436 1 1.88622 17.4753 24.3956
437 1 1.8735 22.1549 16.3657
438 1 1.57548 21.9066 24.6284
439 1 8.6568 13.2018 16.0017
440 1 8.21603 13.1157 24.6888
441 1 8.33057 17.533 16.4413
442 1 8.41924 17.3719 24.5461
443 1 8.64701 21.9049 16.8352
444 1 8.42541 21.8937 24.6507
445 1 4.71098 15.2771 22.9695
446 1 4.57133 15.6321 30.6171
447 1 5.19532 19.5646 22.8595
448 1 4.56771 20.086 30.8865
449 1 5.13189 24.2224 22.7565
450 1 4.35356 24.3986 30.7935
451 1 11.5518 15.6351 22.8218
452 1 11.6554 15.582 30.7287
453 1 12.2149 19.6824 22.687
454 1 12.1225 20.1772 31.0067
455 1 12.2529 23.6118 22.8333
456 1 11.7078 24.252 31.0221
457 1 1.1992 15.3662 20.5956
458 1 1.38089 15.8089 28.3406
459 1 1.16092 19.58 20.7942
460 1 1.49516 20.0497 28.4084
461 1 1.20584 24.2254 20.3698
462 1 1.17519 23.9271 28.0936
463 1 8.14553 15.2871 20.4507
464 1 8.20733 15.7312 28.3796
465 1 8.18865 19.7578 20.9098
466 1 8.1792 20.2276 28.7943
467 1 8.49127 23.9434 20.6443
468 1 8.21552 24.2755 28.769
469 1 5.16936 13.1573 18.7628
470 1 4.90877 13.1674 26.7812
471 1 4.98995 17.8676 19.1856
472 1 5.04379 18.0536 27.2105
473 1 5.03654 21.9175 19.0795
474 1 4.87933 22.3761 26.9298
475 1 11.7469 13.2767 18.9426
476 1 11.8825 13.5142 27.0456
477 1 12.1715 17.6302 19.1484
478 1 11.9969 17.9335 27.3032
479 1 12.0308 21.7317 18.8076
480 1 11.887 21.9213 26.6278
481 2 12.5189 3.24328 4.21291
482 2 10.5057 9.45653 13.0902
483 2 26.565 5.15133 8.53992
484 2 9.23495 10.7013 22.7422
485 2 22.447 24.2698 31.2576
486 2 13.521 15.35 17.5997
487 2 18.6645 15.5128 12.3653
488 2 24.6736 2.60121 11.8356
489 2 4.00634 9.71473 24.5383
490 2 5.74587 24.2271 12.2543
491 2 23.5447 1.02921 13.1467
492 2 10.5724 13.7535 0.0111793
493 2 6.40448 16.2191 9.42723
494 2 13.4223 2.729 26.606
495 2 14.2972 0.31443 27.0981
496 2 14.1214 16.0256 10.5722
497 2 20.7205 13.5411 13.6942
498 2 4.59995 6.87665 12.3565
499 2 8.74522 2.61733 14.8754
500 2 7.76325 18.4874 18.9868
501 2 24.4817 21.9712 21.3942
502 2 21.4675 17.4735 3.09435
503 2 7.34799 13.5914 3.24688
504 2 7.68337 13.5813 27.1887
505 2 5.63917 13.6731 8.06193
506 2 17.0277 0.602345 22.017
507 2 9.8198 3.16696 2.20881
508 2 18.239 21.644 15.983
509 2 20.7579 13.7334 6.68176
510 2 15.4185 19.84 22.9667
511 2 19.8031 6.66132 12.0952
512 2 -0.0825064 18.2396 5.60096
513 2 3.82526 3.16221 28.8002
514 2 5.55082 11.2055 20.285
515 2 9.61785 15.7092 2.07958
516 2 3.2895 0.185213 20.7384
517 2 0.709289 23.8125 6.71371
518 2 10.5861 13.1881 23.6229
519 2 10.0648 19.9761 9.69184
520 2 20.4715 7.03604 9.1688
521 2 0.129379 13.0064 14.2498
522 2 24.0474 4.62198 29.1112
523 2 2.87647 0.0338522 14.313
524 2 17.0226 4.58045 13.321
525 2 11.3463 5.08652 16.2188
526 2 26.4145 7.23606 20.6187
527 2 16.7365 0.0572421 5.62643
528 2 3.82899 4.60127 24.3001
529 2 10.928 9.73761 24.5116
530 2 22.6388 2.94039 31.1455
531 2 1.90994 8.74983 10.8632
532 2 17.2635 13.612 29.0327
533 2 16.9182 10.8516 25.5681
534 2 14.7305 8.99753 11.0179
535 2 16.2797 7.60313 31.0582
536 2 7.80446 21.9934 19.2088
537 2 13.2716 7.21393 0.638668
538 2 27.5123 4.48851 13.4567
539 2 1.2136 6.79849 14.76
540 2 19.4066 2.65208 11.6438
541 2 7.48722 22.2836 27.2457
542 2 19.2817 15.6211 4.17014
543 2 12.443 15.6962 28.0952
544 2 24.8738 17.8289 0.2216
545 2 10.2839 3.0458 25.0676
546 2 18.0943 2.55984 19.8981
547 2 24.4745 7.00961 25.7587
548 2 4.11282 22.3087 24.079
549 2 26.0489 9.44498 8.85326
550 2 23.9943 24.0552 17.5504
551 2 18.1967 7.82293 3.86593
552 2 24.3872 0.424505 7.67124
553 2 12.5958 20.6265 28.4951
554 2 23.4818 4.56401 21.4379
555 2 17.6186 13.2493 23.9247
556 2 20.7604 4.87443 30.8174
557 2 12.6011 0.43825 24.1041
558 2 23.3911 11.7915 9.99828
559 2 27.4973 1.08542 11.3276
560 2 10.9571 21.4381 0.655139
561 2 24.1632 13.7417 21.4709
562 2 22.5277 0.722147 10.7388
563 2 0.635496 20.2633 15.4936
564 2 2.06745 19.7389 31.1663
565 2 10.5269 0.206391 28.925
566 2 6.64042 6.90385 8.83809
567 2 17.1804 21.156 5.10555
568 2 20.4129 15.3888 25.9765
569 2 21.233 7.76706 26.4066
570 2 10.0078 11.7701 9.41565
571 3 9.37506 11.0477 9.93821
572 3 19.9367 15.8108 25.1803
573 3 7.02745 7.13119 9.80598
574 3 21.6946 8.54709 26.8566
575 3 17.0994 22.1364 5.50218
576 3 10.3913 1.2354 28.7334
577 1 15.2108 0.872201 0.150874
578 1 15.6506 0.623459 7.91214
579 1 15.3765 5.26146 0.11256
580 1 15.0787 4.68164 8.36638
581 1 15.4287 9.51785 0.108485
582 1 15.2629 9.44617 8.40048
583 1 22.3649 0.63661 -0.0417861
584 1 21.9513 1.07023 8.34713
585 1 22.51 5.12484 0.446573
586 1 22.5439 4.89749 8.03634
587 1 22.5951 9.40133 0.812496
588 1 22.5017 9.20365 8.49614
589 1 18.4087 3.07929 6.38994
590 1 18.9309 2.38932 14.3476
591 1 18.7231 7.32834 6.43352
592 1 19.1686 6.72937 14.6783
593 1 18.7598 11.4372 6.73579
594 1 18.6455 11.3668 15.081
595 1 25.5161 2.85843 7.05624
596 1 25.9346 2.07196 14.2454
597 1 25.7693 7.15884 7.14988
598 1 26.3906 6.70995 14.5143
599 1 25.6017 11.2039 6.45015
600 1 25.6658 10.7969 14.8473
601 1 15.1405 2.94834 3.79626
602 1 15.3922 2.57612 12.5876
603 1 15.5038 7.44464 4.43946
604 1 15.5083 6.90353 12.1375
605 1 15.3211 11.3773 4.70145
606 1 15.5172 11.4181 12.3731
607 1 22.2502 2.76417 4.30636
608 1 22.1283 2.89061 12.4056
609 1 22.2549 7.31571 4.02968
610 1 22.4505 6.84569 12.5761
611 1 22.1213 11.5183 4.48917
612 1 22.2196 11.1256 12.504
613 1 19.1988 0.770381 2.59192
614 1 18.2778 0.677343 10.6303
615 1 18.8358 5.30653 2.65482
616 1 18.8122 5.00101 10.2223
617 1 18.8148 9.8087 2.24215
618 1 19.0837 8.86341 10.441
619 1 25.7219 1.25421 2.87573
620 1 24.984 0.578501 10.4762
621 1 26.1026 5.19867 2.99636
622 1 25.8166 4.50422 10.849
623 1 25.7839 9.51453 2.51321
624 1 26.001 8.79428 11.4171
625 2 18.4017 17.5452 0.138443
626 2 12.7425 11.516 12.1557
627 2 17.2881 2.73376 8.8564
628 2 9.46003 4.98252 10.8937
629 2 9.62592 7.18569 26.5199
630 2 4.18799 18.1577 8.3808
631 2 15.1222 2.90819 6.52466
632 2 23.8486 11.12 25.9903
633 2 27.3682 21.7379 30.0376
634 2 16.2864 17.9392 3.83173
635 2 10.3942 5.25763 21.1525
636 2 18.3984 19.7299 12.614
637 2 6.32663 15.462 18.1505
638 2 10.127 13.1895 13.7169
639 2 22.9379 11.0553 15.3662
640 2 12.205 17.3591 7.96866
641 2 17.1196 22.2232 21.6757
642 2 12.0303 1.09531 -0.0041617
643 2 2.80847 2.3786 26.1551
644 2 2.09866 2.36989 22.9646
645 2 16.7912 9.56346 5.69475
646 2 11.2484 17.7731 24.1165
647 2 4.96504 6.71271 20.6768
648 2 14.2032 7.60274 14.5603
649 2 20.6656 5.29874 5.8609
650 2 1.08462 5.4613 2.77701
651 2 6.72257 15.363 24.9254
652 2 16.9614 11.4407 1.13513
653 2 10.3237 13.9775 21.1882
654 2 21.3911 5.38935 2.91736
655 2 3.13998 17.595 21.1172
656 2 20.0647 4.73581 24.088
657 2 26.9656 16.0229 28.7424
658 2 17.9699 4.78072 0.135195
659 2 2.42958 19.7893 22.992
660 2 3.60601 8.97731 28.8715
661 2 24.155 17.9515 12.7827
662 2 10.458 2.70355 20.3935
663 2 9.45089 24.5392 1.82733
664 2 13.4698 24.3664 1.17656
665 2 24.3143 0.462317 21.3703
666 2 17.788 10.8059 20.0846
667 2 9.25161 24.4421 31.1769
668 2 17.1222 17.4721 28.4295
669 2 27.3491 10.8013 17.202
670 2 22.5913 11.4149 31.4925
671 2 6.96387 0.821343 13.8126
672 2 13.3466 4.84224 20.7954
673 2 16.8745 23.7248 8.72299
674 2 26.8131 24.6052 25.3977
675 2 16.11 11.5096 30.779
676 2 16.7317 2.18479 26.158
677 2 20.875 15.507 9.16672
678 2 7.80731 22.3476 10.8435
679 2 21.9805 17.8296 26.9788
680 2 14.6035 4.73064 10.946
681 2 14.4674 0.50712 2.52404
682 2 20.1877 22.2562 8.33122
683 2 2.99285 16.4542 1.32369
684 2 4.43746 17.4783 24.4265
685 2 12.7544 19.939 20.229
686 2 24.7965 5.21628 13.3227
687 2 19.7617 13.0205 16.3654
688 2 17.2259 6.02517 24.9017
689 2 19.0431 6.5176 28.274
690 2 16.8886 22.5733 12.7026
691 2 19.2944 19.9477 4.34389
692 2 2.81958 13.4939 30.1362
693 2 22.4506 17.4612 18.9732
694 2 13.4776 17.5568 30.196
695 2 10.8199 5.13373 0.189481
696 2 -0.232254 21.6565 6.05656
697 2 2.02145 15.7447 30.8088
698 2 16.0141 11.4863 7.31673
699 2 5.29079 13.9128 0.248344
700 2 14.0754 7.04677 23.6522
701 2 6.1523 5.49645 16.1933
702 2 11.2221 9.3031 -0.240346
703 2 13.6484 24.0955 9.64941
704 2 7.77716 24.0782 15.3818
705 2 19.9484 24.318 4.00439
706 2 13.4193 11.8591 0.820389
707 2 16.9497 7.85588 1.44673
708 2 18.0694 9.54826 -0.307906
709 2 16.3765 13.5562 14.922
710 2 10.491 22.3369 28.9818
711 2 0.0720632 4.47532 29.4237
712 2 17.4014 19.2871 9.76433
713 2 19.6874 17.9417 5.66524
714 2 10.1514 17.681 14.2724
715 3 9.7736 16.6777 14.4412
716 3 17.0728 20.2678 9.43098
717 3 9.6806 21.9939 29.5622
718 3 20.6096 17.7372 6.18808
719 3 27.3219 5.32779 29.5611
720 3 16.8153 13.1243 14.1217
721 1 15.0651 0.348022 16.6399
722 1 15.3665 0.62853 24.6802
723 1 15.1371 4.75333 16.2298
724 1 14.7594 4.68597 24.642
725 1 14.947 8.93453 16.3727
726 1 15.5307 8.87542 24.6938
727 1 22.3342 0.224141 16.6725
728 1 22.3483 0.68451 24.6919
729 1 21.9264 4.75439 16.922
730 1 22.6739 4.84106 24.8418
731 1 22.1078 8.94111 16.7742
732 1 22.7969 8.92796 24.736
733 1 18.7462 2.39665 22.571
734 1 18.7501 3.04851 30.6083
735 1 18.8497 6.77767 23.0331
736 1 18.8287 7.23026 30.9506
737 1 18.7587 10.9922 22.9996
738 1 18.8029 11.5895 30.8487
739 1 25.7908 2.86657 22.8185
740 1 25.77 2.85854 30.8813
741 1 25.9701 6.52999 23.2454
742 1 26.1165 7.02881 31.0471
743 1 25.9302 11.322 23.5991
744 1 25.7757 11.2407 30.7805
745 1 15.2034 2.86311 20.2123
746 1 15.1404 2.51084 28.5343
747 1 15.5177 6.7362 21.0353
748 1 14.8599 7.04427 28.7073
749 1 15.5826 10.7426 20.6978
750 1 15.0095 10.9398 28.333
751 1 22.486 2.55588 20.9795
752 1 22.1178 2.63148 28.562
753 1 22.2326 6.86961 20.5794
754 1 22.4124 6.67002 28.903
755 1 22.5836 11.089 20.5834
756 1 22.5466 10.8033 28.3095
757 1 18.8112 0.18625 18.503
758 1 18.744 0.508832 26.666
759 1 18.6386 4.69292 18.3552
760 1 18.5988 4.435 26.4818
761 1 18.5841 8.79916 18.8705
762 1 18.919 9.0443 26.8815
763 1 25.8094 0.566164 18.8494
764 1 25.4874 0.726598 27.0524
765 1 25.6396 4.98425 18.9733
766 1 26.4402 4.68944 26.9411
767 1 25.9262 9.34082 18.9824
768 1 25.858 9.15208 27.1867
769 2 10.0529 7.66312 10.0057
770 2 7.97907 19.8399 31.5027
771 2 9.33459 6.92543 23.3287
772 2 13.645 4.78994 14.0997
773 2 9.95647 4.97502 5.43367
774 2 3.35777 9.04032 13.422
775 2 26.6366 2.69333 4.42834
776 2 2.84533 15.902 10.1603
777 2 14.6182 9.47373 2.59594
778 2 2.42266 6.89142 31.4013
779 2 3.27534 12.5295 1.27681
780 2 12.3801 9.30977 8.08751
781 2 6.23412 2.77024 17.2944
782 2 7.4043 18.2355 27.1072
783 2 19.3133 2.99262 3.63026
784 2 23.0618 7.10534 31.3214
785 2 3.37187 24.4516 9.14558
786 2 13.3711 13.1394 14.2759
787 2 6.78298 13.12 30.6953
788 2 23.1108 2.77165 23.3251
789 2 21.0102 4.76212 13.9393
790 2 20.6713 11.876 1.06768
791 2 25.1918 9.51382 0.318083
792 2 19.5503 11.2096 12.0636
793 2 7.03594 9.43957 30.4856
794 2 5.84871 24.3084 1.46385
795 2 9.01889 15.424 6.90801
796 2 1.88201 15.7412 14.7934
797 2 23.2819 15.479 7.13475
798 2 6.48194 13.1603 21.7696
799 2 14.771 13.4482 3.24454
800 2 5.28748 2.68907 20.5656
801 2 25.6673 24.5641 12.4003
802 2 14.1725 13.3489 19.1638
803 2 25.0895 17.6743 8.00469
804 2 26.8814 15.2922 11.691
805 2 10.3962 13.8165 28.9082
806 2 2.22784 19.861 7.01643
807 2 27.1344 11.4648 1.11597
808 2 16.7223 19.7705 26.2096
809 2 15.8189 15.7312 31.0248
810 2 12.2247 7.22995 3.92384
811 2 24.4462 6.62446 9.70367
812 2 0.183338 0.731778 21.9942
813 2 26.5138 11.4047 28.1818
814 2 3.70832 13.1654 24.528
815 2 23.8266 3.03247 18.2802
816 2 3.15055 23.0075 5.16698
817 2 2.10646 7.24421 23.6265
818 2 15.5194 0.270238 10.4188
819 2 23.7851 15.3839 9.82425
820 2 24.3284 21.3999 0.106969
821 2 12.7092 13.7148 8.23673
822 2 20.5787 23.8018 24.8516
823 2 14.7744 13.2279 27.3475
824 2 19.2702 19.8901 20.3211
825 2 3.2769 9.3276 21.1675
826 2 0.521221 13.163 19.3784
827 2 23.8854 11.8932 2.05797
828 2 20.9474 21.9901 5.25844
829 2 6.00657 24.2225 19.8573
830 2 5.78116 19.9793 20.6092
831 2 0.320123 17.4818 18.5791
832 2 20.5887 24.2293 1.04388
833 2 14.5536 17.6765 27.1408
834 2 20.5163 0.942585 5.45988
835 2 24.8388 13.2336 0.0915336
836 2 7.71526 24.3839 23.288
837 2 23.815 9.53471 4.72495
838 2 25.2266 20.1396 28.1373
839 2 9.35303 0.947069 10.7981
840 2 4.48765 6.88749 28.9364
841 2 0.194238 2.86399 7.03891
842 2 24.555 13.893 12.6506
843 2 23.7501 2.95684 26.711
844 2 10.9377 21.7997 24.0005
845 2 5.04927 3.26329 4.11797
846 2 5.95249 24.234 28.1668
847 2 6.56071 20.6918 25.8638
848 2 17.4545 0.632752 15.9105
849 2 26.0742 11.3627 12.4522
850 2 20.9728 17.593 21.4082
851 2 5.69088 15.2194 20.4209
852 2 27.1146 20.3081 9.57051
853 2 16.5537 6.89639 9.01713
854 2 16.7068 0.545807 13.7582
855 2 -0.272455 4.83685 21.424
856 2 23.8928 8.85248 30.2001
857 2 21.3408 19.4658 25.5237
858 2 20.2051 0.565785 21.4956
859 3 20.6602 1.14606 22.282
860 3 24.6166 9.09011 29.4914
861 3 17.0362 0.789106 12.8071
862 3 20.5972 19.9387 25.0723
863 3 -0.184163 4.93707 22.4505
864 3 16.8477 6.74074 10.0332
865 1 15.4201 13.6076 0.324966
866 1 15.6845 13.5342 8.46242
867 1 15.3141 17.9721 0.392631
868 1 15.6506 17.8253 8.73169
869 1 15.3588 22.2213 0.49888
870 1 15.2388 21.9368 8.15183
871 1 22.3531 13.7048 0.132892
872 1 22.286 13.2929 8.37606
873 1 22.1225 17.5782 0.394265
874 1 22.3924 17.6683 8.12618
875 1 22.2483 22.1912 0.417281
876 1 22.5618 22.3226 8.18862
877 1 19.0949 15.597 6.97311
878 1 19.0735 15.4277 14.9297
879 1 19.0889 20.1277 7.14262
880 1 19.0817 19.5042 14.8779
881 1 18.6886 24.0231 6.34899
882 1 18.9285 23.9859 14.9128
883 1 25.7197 15.622 6.81715
884 1 25.8634 15.4779 14.6416
885 1 25.8443 19.6936 6.56397
886 1 25.6914 20.0275 14.7838
887 1 25.8409 24.4615 7.03144
888 1 25.9422 23.8834 15.0711
889 1 15.6007 15.4779 4.34776
890 1 15.6933 15.5455 12.7875
891 1 14.8996 20.0558 4.03956
892 1 15.6834 19.9263 12.368
893 1 15.0486 24.1904 4.27149
894 1 14.9649 24.4419 12.3599
895 1 22.0292 15.6827 4.65075
896 1 22.5456 15.5115 12.277
897 1 22.3929 19.8697 4.44368
898 1 22.3668 19.9187 12.3981
899 1 22.6356 24.5007 4.86263
900 1 22.6467 24.0715 12.4816
901 1 19.1961 13.9451 2.30904
902 1 19.0369 13.1712 10.6757
903 1 18.8065 17.7487 2.88358
904 1 19.4865 17.7409 11.1112
905 1 18.949 22.2243 2.97758
906 1 18.8767 22.0707 10.687
907 1 25.8134 13.6879 2.58655
908 1 25.7336 13.1747 10.612
909 1 26.241 17.8156 2.60943
910 1 26.0233 17.9625 10.6975
911 1 25.8021 22.5543 2.86804
912 1 25.6769 22.0987 10.7745
913 2 2.77666 13.2456 21.4567
914 2 12.8435 24.3677 28.8022
915 2 6.489 24.4072 25.158
916 2 3.86507 5.51848 0.296542
917 2 23.1176 11.4394 6.88198
918 2 8.83638 19.7584 7.02405
919 2 11.847 21.8638 8.01078
920 2 0.818013 17.9112 26.8636
921 2 9.6665 0.673677 5.72201
922 2 13.2201 6.921 17.0939
923 2 23.3242 24.2116 10.0683
924 2 20.1282 9.53598 21.4646
925 2 20.1174 24.4113 11.2504
926 2 24.9363 1.02917 24.4685
927 2 6.26288 22.5764 30.5806
928 2 0.664927 3.66154 10.4056
929 2 15.7964 4.8879 27.2635
930 2 9.98097 24.2307 26.2337
931 2 17.9229 0.881792 24.2624
932 2 10.2934 23.6989 18.52
933 2 26.5428 3.01316 20.325
934 2 6.29484 1.05747 5.48536
935 2 3.22169 15.1084 26.4079
936 2 3.07445 5.43902 6.12695
937 2 22.73 2.42043 6.47011
938 2 6.32642 3.06427 1.21186
939 2 18.6826 4.4935 15.9451
940 2 23.8182 8.948 21.051
941 2 23.5599 11.3376 23.2643
942 2 -0.143435 13.3249 30.3809
943 2 13.3412 13.3911 22.0546
944 2 0.263601 9.25119 30.6442
945 2 7.42183 21.9611 3.03231
946 2 2.17237 4.9384 27.5372
947 2 26.0199 13.309 8.1005
948 2 0.0106794 9.7088 22.6793
949 2 6.71391 7.23009 25.2
950 2 6.74549 21.9421 21.9407
951 2 21.9216 6.81004 15.4335
952 2 16.0066 3.00109 30.861
953 2 13.3664 2.7293 9.15255
954 2 24.6319 13.652 29.291
955 2 14.0412 1.07907 30.3714
956 2 23.8893 21.8253 29.6768
957 2 26.7348 2.55288 28.3027
958 2 9.85486 15.7923 17.9839
959 2 20.563 12.7255 22.0368
960 2 21.6147 13.7576 19.0766
961 2 0.689252 5.11322 19.5774
962 2 24.0971 0.0922941 29.967
963 2 10.0568 11.6191 26.965
964 2 13.3856 17.3807 22.2369
965 2 19.3251 11.6777 4.08941
966 2 5.58253 20.1972 12.361
967 2 22.8566 24.054 23.0496
968 2 24.5142 13.432 4.97795
969 2 27.386 7.54569 1.17208
970 2 20.4558 22.4896 30.5526
971 2 8.97826 3.00198 7.07914
972 2 18.4403 22.2649 0.480709
973 2 26.925 0.618352 8.56802
974 2 20.4 22.1425 22.1487
975 2 0.48176 23.7414 22.8763
976 2 14.4084 19.774 31.0008
977 2 9.9638 6.57744 18.9232
978 2 17.5173 5.14398 7.4317
979 2 25.4042 22.5439 8.2011
980 2 13.3108 1.09806 21.0906
981 2 6.0563 -0.268595 16.9501
982 2 20.8465 0.251857 14.134
983 2 25.4226 17.5108 16.1135
984 2 5.82103 18.5691 0.606806
985 2 13.6886 10.7712 18.1332
986 2 2.03667 10.9688 23.4533
987 2 13.3811 2.74676 18.0984
988 2 2.79685 15.4675 17.7319
989 2 5.88844 11.0881 25.1546
990 2 19.7622 15.4431 27.9247
991 2 16.8336 15.2682 17.9696
992 2 10.8159 10.7223 20.2068
993 2 26.4919 8.56757 16.1854
994 2 3.21984 22.4665 20.7891
995 2 14.1828 21.6398 14.2244
996 2 3.75257 22.3245 0.00259786
997 2 17.5674 20.0656 1.66988
998 2 16.9441 10.632 18.3381
999 2 15.9066 6.08532 18.4825
1000 2 0.792505 19.1392 10.218
1001 2 13.7462 3.87539 30.3775
1002 2 2.31442 8.7174 6.33741
1003 3 3.17659 9.08551 5.7716
1004 3 0.642279 18.2193 10.6165
1005 3 17.4193 11.0346 17.4046
1006 3 13.6378 4.85064 29.9534
1007 3 15.9332 5.11465 18.6584
1008 3 16.5073 20.3609 1.65045
1009 1 15.065 12.9176 16.6164
1010 1 15.1749 13.1398 24.6437
1011 1 15.9385 17.3023 16.8502
1012 1 15.1538 17.7044 24.6453
1013 1 15.4896 21.6168 16.313
1014 1 15.604 21.9852 24.3039
1015 1 22.3983 13.3618 16.4737
1016 1 22.1531 13.2915 24.5505
1017 1 22.4679 17.4413 16.4948
1018 1 22.1807 17.5663 24.3162
1019 1 22.2738 21.8595 16.0748
1020 1 22.0731 21.9313 24.4282
1021 1 18.3998 15.3936 23.0031
1022 1 18.7525 15.7549 30.4269
1023 1 19.1046 20.1516 22.8016
1024 1 18.8386 20.1646 31.4082
1025 1 18.6584 24.389 23.0067
1026 1 18.8716 24.1687 31.1935
1027 1 25.7808 15.2764 22.584
1028 1 25.6472 15.4907 30.9343
1029 1 25.1093 19.6244 22.9214
1030 1 25.6229 19.6167 30.6326
1031 1 25.8429 23.771 23.0044
1032 1 25.636 23.5121 31.2566
1033 1 14.8766 15.3464 20.9514
1034 1 15.3228 15.5519 28.631
1035 1 15.5955 20.0623 20.7057
1036 1 15.5657 19.7578 28.6525
1037 1 15.2118 24.1398 20.6383
1038 1 15.5194 24.1276 28.7676
1039 1 22.402 15.3656 20.4803
1040 1 22.4167 15.3719 28.4071
1041 1 22.2861 19.7478 20.2143
1042 1 22.1295 19.6125 28.8369
1043 1 22.7405 24.0207 20.5622
1044 1 22.1007 23.9851 28.7797
1045 1 18.77 13.0163 18.996
1046 1 18.6291 13.3855 26.5529
1047 1 18.5353 17.3811 19.1688
1048 1 18.8196 17.49 26.6479
1049 1 18.9611 21.6419 18.4351
1050 1 18.9142 21.459 26.6529
1051 1 25.8627 13.188 18.7343
1052 1 25.9772 13.7092 26.7926
1053 1 25.6022 17.4281 18.9269
1054 1 26.0935 17.7453 27.0972
1055 1 25.736 22.0487 18.8544
1056 1 25.266 22.4719 27.1239
1057 2 4.00552 13.2435 15.9748
1058 2 8.82932 15.3588 23.0383
1059 2 24.829 24.6105 1.55081
1060 2 26.157 23.8759 20.4704
1061 2 3.10484 24.38 17.9164
1062 2 6.64848 7.45408 1.52503
1063 2 16.7629 6.74266 16.1531
1064 2 7.99043 19.8282 15.1794
1065 2 5.83897 15.3777 4.68159
1066 2 2.94005 4.46818 20.9059
1067 2 26.2499 19.4927 20.6641
1068 2 0.694745 13.7866 27.3611
1069 2 21.6664 13.5848 11.058
1070 2 7.46108 4.85035 19.2893
1071 2 27.4352 9.14238 5.91513
1072 2 15.7883 13.7319 10.8491
1073 2 -0.261443 17.4877 13.8604
1074 2 3.1084 17.8704 5.17739
1075 2 21.5418 17.1204 29.7695
1076 2 24.6381 21.9992 24.5158
1077 2 23.9792 19.8182 17.6322
1078 2 14.7569 15.9215 15.1235
1079 2 10.1597 22.2193 12.9375
1080 2 2.99827 3.3576 1.88823
1081 2 6.48961 19.5064 9.77727
1082 2 21.2897 4.77704 27.1768
1083 2 5.52021 9.17827 15.9056
1084 2 0.592662 2.5184 14.9128
1085 2 12.426 17.6305 16.4273
1086 2 20.3242 3.38053 8.67699
1087 2 7.59928 2.98397 23.4332
1088 2 7.71177 8.62861 19.2816
1089 2 0.487432 8.90289 27.5968
1090 2 26.1279 0.678865 16.1368
1091 2 0.929605 24.0561 15.0452
1092 2 20.6528 11.4853 9.11061
1093 2 25.6586 19.9303 4.13619
1094 2 21.7823 0.491809 19.2498
1095 2 10.8205 19.4418 12.3513
1096 2 13.9224 9.07953 5.76284
1097 2 19.1126 19.683 28.9024
1098 2 18.853 0.629676 7.9618
1099 2 -0.184735 8.95159 13.4618
1100 2 20.4031 3.09582 1.38029
1101 2 6.35319 18.0643 29.9043
1102 2 11.0397 8.91384 16.3089
1103 2 20.2183 11.2169 25.4536
1104 2 10.3235 -0.0580876 22.0405
1105 2 14.6045 19.6719 6.56295
1106 2 14.4253 24.3329 6.98811
1107 2 9.62023 19.7484 26.484
1108 2 10.1768 8.76395 21.1295
1109 2 -0.380646 22.1618 14.0321
1110 2 16.8117 21.8085 30.0199
1111 2 3.14631 19.5471 1.5077
1112 2 14.0865 10.3165 14.7585
1113 2 4.98861 22.3531 8.17834
1114 2 12.4127 23.7823 11.7986
1115 2 26.3972 24.437 28.9116
1116 2 12.9003 15.6343 12.6456
1117 2 22.9819 4.91822 10.6856
1118 2 24.4018 1.17643 5.16048
1119 2 25.4322 4.7563 0.150338
1120 2 27.662 2.55723 25.4757
1121 2 21.1722 4.09967 19.4951
1122 2 12.8163 24.0034 20.1915
1123 2 3.18478 7.42157 2.5821
1124 2 11.6554 21.6133 16.2161
1125 2 23.6457 24.404 26.573
1126 2 20.3273 19.9792 1.93459
1127 2 17.0462 17.4397 21.3287
1128 2 8.59729 18.0104 11.315
1129 2 10.0082 22.6398 4.75038
1130 2 4.20978 9.22976 0.67754
1131 2 12.0576 14.974 4.04363
1132 2 7.25398 24.643 10.1348
1133 2 10.8164 21.8603 21.612
1134 2 27.1282 24.1605 17.6804
1135 2 18.2607 9.32021 7.94834
1136 2 3.21763 6.46538 9.75886
1137 2 6.99389 13.9868 10.9614
1138 2 -0.194621 17.1396 22.1666
1139 2 27.2225 3.20063 1.29457
1140 2 8.91626 11.1722 14.8067
1141 2 19.7259 21.9439 13.306
1142 2 20.578 23.9572 18.17
1143 2 17.5367 8.91722 21.7815
1144 2 24.1153 6.8435 17.5018
1145 2 20.6482 16.1276 17.9543
1146 2 0.132045 13.2003 6.15723
1147 3 0.204976 12.165 6.56835
1148 3 23.2567 6.71545 18.2097
1149 3 20.3102 24.172 17.2263
1150 3 19.9781 16.5797 17.2608
1151 3 16.6776 9.16336 22.4171
1152 3 20.3752 21.8849 14.0547
