# LAMMPS data file
756 atoms
3 atom types
0.0 32.39794198551478 xlo xhi
0.0 23.64774 ylo yhi
0.0 77.32469402918946 zlo zhi

Atoms # atomic

1 1 5.07362 3.05499 31.4383
2 1 8.95332 4.82759 30
3 1 10.4733 0.886302 31.4383
4 1 3.55366 6.99628 30
5 2 6.08428 5.36421 30.2063
6 2 7.94266 2.51837 31.232
7 2 0.684626 6.45966 30.2063
8 2 2.543 1.42292 31.232
9 2 8.45027 7.31804 30.6132
10 2 5.57667 0.564542 30.8251
11 2 3.05061 4.50583 30.6132
12 2 0.177018 3.37675 30.8251
13 1 8.30125 3.05499 34.086
14 1 1.38163 4.82759 32.6477
15 1 2.90159 0.886302 34.086
16 1 6.78129 6.99628 32.6477
17 2 9.31191 5.36421 32.854
18 2 0.370971 2.51837 33.8797
19 2 3.91225 6.45966 32.854
20 2 5.77063 1.42292 33.8797
21 2 0.878579 7.31804 33.261
22 2 8.8043 0.564542 33.4728
23 2 6.27824 4.50583 33.261
24 2 3.40464 3.37675 33.4728
25 1 0.634129 3.12924 36.7872
26 1 4.59391 4.75446 35.2237
27 1 6.00029 1.17947 36.7812
28 1 9.98137 7.05588 35.6949
29 2 8.35936 20.1516 44.4927
30 2 3.69569 2.53039 36.4247
31 2 1.0845 8.10754 36.0591
32 2 29.5278 9.41026 44.8822
33 2 7.11135 6.33561 35.9774
34 2 12.4571 20.2332 39.1241
35 2 9.12396 4.79705 36.3181
36 2 6.06057 3.46348 36.513
37 1 3.90979 3.08533 39.5444
38 1 7.6552 4.71482 38.355
39 1 8.927 0.973379 39.7512
40 1 2.46318 7.0344 37.9155
41 2 6.62394 11.1404 36.2846
42 2 31.6862 21.3151 46.3791
43 2 4.19031 0.7999 38.699
44 2 2.17368 9.48814 44.8887
45 2 5.51031 3.31066 44.6429
46 2 8.38783 13.146 41.1182
47 2 30.5151 8.88978 36.6382
48 2 26.1885 16.4083 38.6654
49 1 7.29269 3.27771 42.7116
50 1 0.170811 4.94358 40.7913
51 1 1.89796 0.747909 42.4127
52 1 5.24555 7.23806 41.0907
53 2 7.1497 22.6833 45.2643
54 2 28.5205 2.31072 39.4246
55 2 3.33719 16.8656 47.213
56 2 0.925322 0.733295 36.0322
57 2 12.1602 13.6729 35.5097
58 2 28.4691 18.9172 36.4209
59 2 18.8574 13.6956 48.5706
60 2 29.1558 8.78276 41.63
61 1 9.92578 2.97918 45.3886
62 1 3.50054 4.67322 43.8035
63 1 5.24248 0.829037 45.4495
64 1 9.02444 7.03643 43.8055
65 2 0.746456 13.4805 44.0334
66 2 14.947 8.24948 38.9148
67 2 29.81 1.99412 44.7461
68 2 1.79995 20.0125 45.89
69 2 11.5106 21.6195 44.0002
70 2 26.9271 2.92134 44.4507
71 2 13.9405 23.2722 44.6204
72 2 28.306 3.28592 36.1185
73 1 2.49946 2.79949 47.969
74 1 6.09577 5.08057 46.882
75 1 7.14549 20.6287 46.6845
76 1 1.50374 7.15769 46.4139
77 2 10.8402 5.51306 43.946
78 2 18.6273 0.745335 41.8331
79 2 16.0221 18.9162 45.6801
80 2 1.56968 4.53497 46.3007
81 2 30.0256 4.89583 43.6304
82 2 30.8488 4.84514 47.7746
83 2 1.50292 16.5787 36.1389
84 2 4.31059 9.43461 42.3832
85 1 5.07362 10.9376 31.4383
86 1 8.95332 12.7102 30
87 1 10.4733 8.76888 31.4383
88 1 3.55366 14.8789 30
89 2 6.08428 13.2468 30.2063
90 2 7.94266 10.401 31.232
91 2 0.684626 14.3422 30.2063
92 2 2.543 9.3055 31.232
93 2 8.45027 15.2006 30.6132
94 2 5.57667 8.44712 30.8251
95 2 3.05061 12.3884 30.6132
96 2 0.177018 11.2593 30.8251
97 1 8.30125 10.9376 34.086
98 1 1.38163 12.7102 32.6477
99 1 2.90159 8.76888 34.086
100 1 6.78129 14.8789 32.6477
101 2 9.31191 13.2468 32.854
102 2 0.370971 10.401 33.8797
103 2 3.91225 14.3422 32.854
104 2 5.77063 9.3055 33.8797
105 2 0.878579 15.2006 33.261
106 2 8.8043 8.44712 33.4728
107 2 6.27824 12.3884 33.261
108 2 3.40464 11.2593 33.4728
109 1 0.547198 10.7639 36.8265
110 1 4.5378 12.4893 35.327
111 1 5.98499 9.01467 36.9978
112 1 10.0458 14.9883 35.3126
113 2 1.7545 12.9118 35.7558
114 2 3.51231 10.2162 36.3718
115 2 11.9921 16.6386 36.2754
116 2 19.1576 5.36381 40.7003
117 2 3.71872 15.144 35.9703
118 2 1.35899 5.50238 35.5892
119 2 9.74382 12.4214 35.6984
120 2 8.49899 5.20609 41.2683
121 1 3.95837 10.9996 39.9867
122 1 7.88191 12.8085 38.2493
123 1 9.15316 8.59438 39.8683
124 1 2.57655 15.0289 38.3571
125 2 6.65997 14.4887 35.2838
126 2 24.0213 10.6406 44.8465
127 2 10.5764 22.9617 40.9972
128 2 27.7034 22.3466 43.6631
129 2 1.52388 12.7391 48.1451
130 2 3.9307 7.24767 35.7879
131 2 4.71416 13.0074 38.391
132 2 4.90092 4.55698 41.5655
133 1 7.53405 11.4329 42.544
134 1 0.262046 12.8965 40.9144
135 1 1.69197 8.5086 42.0865
136 1 5.79646 15.2296 40.7105
137 2 11.0096 8.33274 44.4754
138 2 28.1199 10.1491 38.8046
139 2 30.057 11.8189 47.6497
140 2 7.96102 16.3907 41.2323
141 2 26.9423 20.1684 41.6315
142 2 2.40235 3.0305 41.587
143 2 32.2073 0.578618 45.3524
144 2 29.7356 5.18396 40.8465
145 1 10.9262 10.952 45.3125
146 1 3.5877 12.8355 43.5021
147 1 5.0166 8.99545 44.7701
148 1 8.94526 15.3424 43.5346
149 2 10.2678 10.6625 42.0752
150 2 0.991891 17.557 39.4451
151 2 28.8171 23.22 46.4075
152 2 19.0237 4.72834 44.3525
153 2 14.5089 5.36762 46.2394
154 2 3.18395 8.94809 47.2513
155 2 11.5414 14.2877 43.4083
156 2 31.3829 14.039 46.3569
157 1 31.6237 12.8901 49.2338
158 1 7.32313 12.7925 46.306
159 1 8.49923 8.9966 47.7721
160 1 1.71068 14.6306 46.3219
161 2 20.5392 6.65879 37.9839
162 2 24.5056 18.2727 44.5454
163 2 32.146 14.3344 38.4664
164 2 32.1663 6.66678 38.478
165 2 21.7744 0.710551 44.3256
166 2 3.21537 18.3666 36.7995
167 2 4.36745 1.1843 42.1841
168 1 5.07362 18.8201 31.4383
169 1 8.95332 20.5928 30
170 1 10.4733 16.6515 31.4383
171 1 3.55366 22.7614 30
172 2 6.08428 21.1294 30.2063
173 2 7.94266 18.2835 31.232
174 2 0.684626 22.2248 30.2063
175 2 2.543 17.1881 31.232
176 2 8.45027 23.0832 30.6132
177 2 5.57667 16.3297 30.8251
178 2 3.05061 20.271 30.6132
179 2 0.177018 19.1419 30.8251
180 1 8.30125 18.8201 34.086
181 1 1.38163 20.5928 32.6477
182 1 2.90159 16.6515 34.086
183 1 6.78129 22.7614 32.6477
184 2 9.31191 21.1294 32.854
185 2 0.370971 18.2835 33.8797
186 2 3.91225 22.2248 32.854
187 2 5.77063 17.1881 33.8797
188 2 0.878579 23.0832 33.261
189 2 8.8043 16.3297 33.4728
190 2 6.27824 20.271 33.261
191 2 3.40464 19.1419 33.4728
192 1 0.665246 18.7752 37.1916
193 1 4.28248 20.5892 35.5419
194 1 5.71443 16.6402 36.6716
195 1 10.1102 22.9172 35.2914
196 2 1.40797 20.8587 36.2312
197 2 11.0022 8.99405 47.3942
198 2 7.1 22.6481 36.0177
199 2 9.95115 19.3458 39.0016
200 2 4.17688 23.0186 35.963
201 2 29.2004 23.015 38.9997
202 2 9.79636 22.5256 38.0707
203 2 2.24775 12.1313 45.5456
204 1 4.25051 18.8841 39.597
205 1 7.88057 20.8786 37.7801
206 1 9.32305 16.669 39.4591
207 1 2.51175 22.6486 38.0844
208 2 4.2637 21.6994 47.0722
209 2 22.3238 5.44238 43.8787
210 2 22.5272 8.58911 36.0161
211 2 11.8333 5.31598 48.0659
212 2 30.6396 18.6492 47.1774
213 2 31.7663 7.41373 41.3289
214 2 26.4173 5.05779 38.7297
215 2 22.7827 9.02624 39.1645
216 1 7.21739 18.9237 42.7096
217 1 0.337949 20.4084 40.7978
218 1 1.94993 16.5771 42.4216
219 1 5.63198 22.9011 40.5942
220 2 21.1737 15.648 41.6256
221 2 15.524 5.43263 38.0842
222 2 24.1226 20.2111 38.2756
223 2 19.1105 17.7538 44.5041
224 2 30.3562 20.4253 43.9018
225 2 28.968 16.3188 41.6999
226 2 6.44923 7.6728 46.5228
227 2 15.7501 21.3366 47.2166
228 1 10.8302 19.3724 44.9067
229 1 3.16642 20.6914 43.9686
230 1 5.16416 16.3557 45.4527
231 1 8.87273 22.9325 43.5471
232 2 23.9155 14.3948 41.1112
233 2 29.5072 0.279098 41.6931
234 2 21.1578 23.3875 41.2981
235 2 7.71239 1.61073 44.5957
236 2 21.2827 22.2469 38.289
237 2 4.78607 18.9695 45.4565
238 2 31.6433 3.40074 38.801
239 2 3.67607 0.809849 47.4824
240 1 3.33213 19.3577 47.8003
241 1 11.9257 23.2352 46.3992
242 1 8.8625 17.1524 48.1144
243 1 1.50219 22.9804 46.634
244 2 13.9501 7.39173 44.0567
245 2 5.17535 20.2965 41.9165
246 2 6.0391 10.5354 47.3874
247 2 26.6761 4.45178 41.4109
248 2 24.1731 6.43379 41.3728
249 2 24.272 23.1394 44.0493
250 2 0.785509 1.1074 49.3096
251 2 9.12906 19.3353 47.3463
252 1 15.8729 3.05499 31.4383
253 1 19.7526 4.82759 30
254 1 21.2726 0.886302 31.4383
255 1 14.353 6.99628 30
256 2 16.8836 5.36421 30.2063
257 2 18.742 2.51837 31.232
258 2 11.4839 6.45966 30.2063
259 2 13.3423 1.42292 31.232
260 2 19.2496 7.31804 30.6132
261 2 16.376 0.564542 30.8251
262 2 13.8499 4.50583 30.6132
263 2 10.9763 3.37675 30.8251
264 1 19.1006 3.05499 34.086
265 1 12.1809 4.82759 32.6477
266 1 13.7009 0.886302 34.086
267 1 17.5806 6.99628 32.6477
268 2 20.1112 5.36421 32.854
269 2 11.1703 2.51837 33.8797
270 2 14.7116 6.45966 32.854
271 2 16.5699 1.42292 33.8797
272 2 11.6779 7.31804 33.261
273 2 19.6036 0.564542 33.4728
274 2 17.0775 4.50583 33.261
275 2 14.204 3.37675 33.4728
276 1 11.3756 2.75984 37.0049
277 1 15.3236 4.84367 35.1672
278 1 16.5853 0.812604 37.027
279 1 20.6491 7.11047 35.4587
280 2 12.1251 5.39997 35.6352
281 2 25.4615 13.3151 46.0293
282 2 18.1157 6.17433 35.3833
283 2 19.6926 1.08816 36.5156
284 2 14.7355 7.26896 35.9708
285 2 28.3392 7.50171 47.2696
286 2 20.0983 4.25541 35.9057
287 2 14.185 2.93204 36.5288
288 1 14.9868 3.00456 39.4484
289 1 18.7225 4.63415 37.8959
290 1 20.0262 1.08733 39.4965
291 1 13.0834 6.80377 38.1102
292 2 7.48155 7.28448 38.4753
293 2 8.98238 1.78165 36.9718
294 2 11.4408 15.4139 40.3115
295 2 30.1133 13.8292 41.0251
296 2 25.027 16.6887 47.2936
297 2 16.2183 2.27884 47.8165
298 2 5.30512 3.09994 47.9496
299 2 17.2072 3.34773 36.3655
300 1 17.9122 3.23185 42.4274
301 1 11.1748 4.39762 40.7927
302 1 12.6153 0.754658 42.4126
303 1 16.3458 6.86856 40.8489
304 2 15.3773 0.77987 39.3917
305 2 23.7117 19.5761 41.6504
306 2 12.897 4.31018 38.8706
307 2 22.939 2.11853 39.0816
308 2 8.43791 10.1596 45.0847
309 2 31.8717 23.1723 41.3266
310 2 27.759 18.1438 46.8938
311 2 8.07923 21.0271 41.085
312 1 21.0587 3.09581 45.0189
313 1 14.1484 4.71015 43.2904
314 1 15.6427 0.299091 46.4942
315 1 19.5372 7.36126 43.8129
316 2 31.5475 10.4793 41.7791
317 2 23.62 20.6622 45.4777
318 2 22.423 13.8092 43.8638
319 2 26.8841 2.92827 47.5576
320 2 6.98096 10.5333 39.6175
321 2 6.40652 19.5018 36.0693
322 2 11.0296 1.01964 44.5258
323 2 8.21678 4.58068 44.6936
324 1 13.9764 19.0476 47.7059
325 1 17.1128 4.76351 46.11
326 1 23.1432 6.82277 46.3965
327 1 12.4617 6.9913 46.1773
328 2 2.86641 14.6106 40.819
329 2 7.21067 23.2644 38.8
330 2 24.7663 7.32213 44.3467
331 2 17.4091 7.27335 38.5093
332 2 13.7683 12.9953 49.5386
333 2 17.3332 17.1305 48.912
334 2 20.5706 21.3039 45.9783
335 2 0.93201 5.72423 43.9677
336 1 15.8729 10.9376 31.4383
337 1 19.7526 12.7102 30
338 1 21.2726 8.76888 31.4383
339 1 14.353 14.8789 30
340 2 16.8836 13.2468 30.2063
341 2 18.742 10.401 31.232
342 2 11.4839 14.3422 30.2063
343 2 13.3423 9.3055 31.232
344 2 19.2496 15.2006 30.6132
345 2 16.376 8.44712 30.8251
346 2 13.8499 12.3884 30.6132
347 2 10.9763 11.2593 30.8251
348 1 19.1006 10.9376 34.086
349 1 12.1809 12.7102 32.6477
350 1 13.7009 8.76888 34.086
351 1 17.5806 14.8789 32.6477
352 2 20.1112 13.2468 32.854
353 2 11.1703 10.401 33.8797
354 2 14.7116 14.3422 32.854
355 2 16.5699 9.3055 33.8797
356 2 11.6779 15.2006 33.261
357 2 19.6036 8.44712 33.4728
358 2 17.0775 12.3884 33.261
359 2 14.204 11.2593 33.4728
360 1 11.5123 11.199 36.9759
361 1 15.3629 12.7274 35.3888
362 1 16.879 8.98319 37.0683
363 1 20.9068 14.7996 35.173
364 2 14.7887 15.1685 35.6779
365 2 14.2411 10.6571 37.0158
366 2 20.1467 12.4879 35.8838
367 2 17.2731 6.21079 43.5704
368 2 13.9291 15.1961 43.8757
369 2 10.4806 6.41114 38.6413
370 2 22.7966 16.6359 36.0905
371 2 17.2312 11.4976 36.4402
372 1 14.8127 10.9866 39.6447
373 1 18.617 12.9889 37.8682
374 1 19.7577 8.53107 39.619
375 1 13.095 15.2051 38.3089
376 2 4.8961 12.1728 41.4842
377 2 13.5399 0.697704 48.046
378 2 19.9274 17.322 36.6903
379 2 20.637 19.2321 39.265
380 2 27.0435 19.1247 44.7364
381 2 3.55086 7.17183 43.2573
382 2 4.99444 5.65558 38.5279
383 2 9.91793 2.22137 42.5417
384 1 17.9992 10.8819 42.2301
385 1 11.3281 12.7689 40.8959
386 1 12.37 8.85458 42.3844
387 1 16.741 14.8435 40.9767
388 2 26.9822 11.4581 44.4158
389 2 8.96645 12.7897 44.2641
390 2 12.0024 9.70301 40.0599
391 2 0.116929 15.4572 48.4881
392 2 25.1457 18.0804 36.8815
393 2 15.4916 21.407 38.217
394 2 7.12106 15.2603 38.541
395 2 21.946 4.4877 47.1977
396 1 28.1747 12.9076 46.4916
397 1 14.437 12.5384 43.636
398 1 15.7182 8.56285 45.0287
399 1 19.8319 15.2238 43.8349
400 2 5.68699 11.3454 44.3606
401 2 29.428 17.1712 44.9676
402 2 29.292 14.1334 48.8932
403 2 26.442 1.26793 42.2159
404 2 25.1701 0.499208 47.206
405 2 11.7651 17.6114 47.49
406 2 15.3293 16.4666 39.4249
407 2 14.6471 18.5211 36.7318
408 1 13.8978 11.063 47.8631
409 1 20.8082 12.5163 49.1453
410 1 21.3583 11.1391 44.9796
411 1 12.3105 15.1308 46.2448
412 2 13.883 21.9016 40.7971
413 2 16.9728 21.6093 43.7984
414 2 14.3637 16.38 47.5536
415 2 18.2519 22.9861 46.0891
416 2 23.5318 11.0885 41.911
417 2 12.543 12.3882 45.7719
418 2 31.9979 21.6325 37.6791
419 1 15.8729 18.8201 31.4383
420 1 19.7526 20.5928 30
421 1 21.2726 16.6515 31.4383
422 1 14.353 22.7614 30
423 2 16.8836 21.1294 30.2063
424 2 18.742 18.2835 31.232
425 2 11.4839 22.2248 30.2063
426 2 13.3423 17.1881 31.232
427 2 19.2496 23.0832 30.6132
428 2 16.376 16.3297 30.8251
429 2 13.8499 20.271 30.6132
430 2 10.9763 19.1419 30.8251
431 1 19.1006 18.8201 34.086
432 1 12.1809 20.5928 32.6477
433 1 13.7009 16.6515 34.086
434 1 17.5806 22.7614 32.6477
435 2 20.1112 21.1294 32.854
436 2 11.1703 18.2835 33.8797
437 2 14.7116 22.2248 32.854
438 2 16.5699 17.1881 33.8797
439 2 11.6779 23.0832 33.261
440 2 19.6036 16.3297 33.4728
441 2 17.0775 20.271 33.261
442 2 14.204 19.1419 33.4728
443 1 11.5925 19.1341 36.8771
444 1 15.2808 20.703 35.3817
445 1 16.5998 16.7568 37.0924
446 1 20.7199 22.7143 35.5261
447 2 9.77603 14.8654 46.1528
448 2 15.0387 23.024 35.899
449 2 17.5569 22.4221 35.6094
450 2 19.6935 12.6169 43.3567
451 2 12.6595 21.728 35.7954
452 2 11.1679 16.5673 44.3819
453 2 20.2514 19.8949 35.9339
454 2 24.4964 22.563 41.0244
455 1 14.8586 19.0831 39.4299
456 1 18.7596 20.417 38.0179
457 1 20.0885 16.963 39.9037
458 1 13.23 23.0109 38.2236
459 2 20.2047 11.1909 38.9854
460 2 17.5271 10.1428 39.7511
461 2 6.99743 15.2718 46.7732
462 2 16.3358 13.2677 38.5049
463 2 14.6471 8.35182 47.331
464 2 17.4593 19.0622 36.1252
465 2 15.9804 3.33491 44.1428
466 2 16.0644 20.3761 41.4553
467 1 17.9896 18.9966 42.2992
468 1 11.3764 20.4594 40.8926
469 1 12.6986 16.7313 42.1936
470 1 16.7757 22.8699 41.1395
471 2 13.3037 2.43062 45.3199
472 2 30.0645 12.2787 44.6331
473 2 2.31459 19.1831 41.9886
474 2 2.62936 2.36241 45.1036
475 2 27.9701 18.6581 39.7224
476 2 10.1858 14.3618 38.544
477 2 31.8127 8.2162 45.8887
478 2 21.354 14.167 37.958
479 1 21.5052 19.0083 44.9229
480 1 14.6592 20.6998 43.7332
481 1 15.71 16.4187 45.3645
482 1 19.8408 22.6092 43.7453
483 2 19.7811 20.2815 43.5918
484 2 28.7455 15.0719 45.5834
485 2 12.1606 0.707222 36.1533
486 2 13.0538 2.96739 41.5604
487 2 26.52 20.957 38.6296
488 2 5.84705 6.30638 43.9612
489 2 23.3499 4.84374 38.9482
490 2 3.23236 22.0828 41.0497
491 1 15.9177 14.8516 48.9715
492 1 18.0632 20.5437 46.4928
493 1 17.8544 12.7192 46.4844
494 1 13.302 3.31191 48.054
495 2 7.65144 8.29624 42.1195
496 2 22.2878 1.72086 46.984
497 2 11.1574 1.81891 47.5597
498 2 25.8978 17.3812 42.031
499 2 9.36697 20.2899 36.031
500 2 13.6648 18.5023 45.1307
501 2 26.2647 21.6253 46.0816
502 2 2.16208 12.68 38.9528
503 1 26.6722 3.05499 31.4383
504 1 30.5519 4.82759 30
505 1 32.0719 0.886302 31.4383
506 1 25.1523 6.99628 30
507 2 27.6829 5.36421 30.2063
508 2 29.5413 2.51837 31.232
509 2 22.2833 6.45966 30.2063
510 2 24.1416 1.42292 31.232
511 2 30.0489 7.31804 30.6132
512 2 27.1753 0.564542 30.8251
513 2 24.6492 4.50583 30.6132
514 2 21.7756 3.37675 30.8251
515 1 29.8999 3.05499 34.086
516 1 22.9803 4.82759 32.6477
517 1 24.5002 0.886302 34.086
518 1 28.3799 6.99628 32.6477
519 2 30.9105 5.36421 32.854
520 2 21.9696 2.51837 33.8797
521 2 25.5109 6.45966 32.854
522 2 27.3693 1.42292 33.8797
523 2 22.4772 7.31804 33.261
524 2 30.4029 0.564542 33.4728
525 2 27.8769 4.50583 33.261
526 2 25.0033 3.37675 33.4728
527 1 22.2627 2.9125 36.7755
528 1 26.3949 4.65897 35.4464
529 1 27.8305 0.841407 36.6992
530 1 31.6163 6.93334 35.4244
531 2 22.7975 5.47749 35.7561
532 2 22.9615 0.455618 36.2756
533 2 28.4145 7.67279 39.0273
534 2 30.7079 0.929995 36.9061
535 2 28.6282 6.54654 35.6927
536 2 9.91897 21.7822 46.3947
537 2 30.8296 4.37468 35.9885
538 2 29.5911 21.1464 41.0559
539 1 25.5778 2.8486 39.301
540 1 29.4071 4.89875 38.1807
541 1 31.1025 0.8868 39.5358
542 1 23.727 7.23571 37.9853
543 2 27.4467 10.2464 47.0934
544 2 12.7333 20.7214 46.5096
545 2 1.37805 9.14282 39.3117
546 2 9.87244 18.1545 42.5134
547 2 16.5972 12.1167 48.738
548 2 21.3784 7.48007 41.3237
549 2 25.7943 7.03672 36.1073
550 2 26.1467 9.93071 42.5482
551 1 28.8919 3.08777 42.2682
552 1 21.6291 4.96665 40.927
553 1 23.3767 0.859705 41.8825
554 1 26.8497 6.89405 40.7953
555 2 31.7481 18.2508 42.6916
556 2 3.21213 23.1145 44.695
557 2 18.1221 9.53484 44.3264
558 2 6.71793 17.7347 39.9571
559 2 13.5325 6.7414 41.2158
560 2 9.51077 11.3293 38.9907
561 2 6.34258 18.4976 48.4776
562 2 2.09616 4.51016 38.5689
563 1 32.0889 3.53883 44.9215
564 1 25.0251 4.74082 43.5153
565 1 26.8713 0.739497 45.0563
566 1 30.5254 7.59629 43.4548
567 2 2.10084 11.2802 42.0763
568 2 12.2515 1.47339 39.0216
569 2 26.1523 0.525235 38.8223
570 2 3.50815 5.872 46.3566
571 2 27.5108 6.08373 43.7063
572 2 1.37389 1.39527 39.1584
573 2 12.7389 17.4894 38.8586
574 2 23.401 3.48296 45.1936
575 1 24.4373 2.97659 47.7113
576 1 28.2824 4.85923 46.1815
577 1 30.6602 1.40676 47.3894
578 1 25.1209 10.7873 48.1096
579 2 4.66159 17.2445 41.9721
580 2 27.5427 12.4758 40.6338
581 2 5.0258 20.894 38.0452
582 2 27.5634 13.8122 43.3143
583 2 18.3223 7.88459 41.7169
584 2 31.8353 10.3611 48.3829
585 2 22.0116 16.5307 45.0587
586 2 14.834 1.44094 41.5981
587 1 26.6722 10.9376 31.4383
588 1 30.5519 12.7102 30
589 1 32.0719 8.76888 31.4383
590 1 25.1523 14.8789 30
591 2 27.6829 13.2468 30.2063
592 2 29.5413 10.401 31.232
593 2 22.2833 14.3422 30.2063
594 2 24.1416 9.3055 31.232
595 2 30.0489 15.2006 30.6132
596 2 27.1753 8.44712 30.8251
597 2 24.6492 12.3884 30.6132
598 2 21.7756 11.2593 30.8251
599 1 29.8999 10.9376 34.086
600 1 22.9803 12.7102 32.6477
601 1 24.5002 8.76888 34.086
602 1 28.3799 14.8789 32.6477
603 2 30.9105 13.2468 32.854
604 2 21.9696 10.401 33.8797
605 2 25.5109 14.3422 32.854
606 2 27.3693 9.3055 33.8797
607 2 22.4772 15.2006 33.261
608 2 30.4029 8.44712 33.4728
609 2 27.8769 12.3884 33.261
610 2 25.0033 11.2593 33.4728
611 1 22.0421 10.8885 36.988
612 1 25.5944 12.4685 35.543
613 1 27.5948 8.7638 36.8374
614 1 31.6422 14.6413 35.2404
615 2 23.531 10.9066 49.9014
616 2 20.2114 12.0243 46.8351
617 2 28.5412 14.3086 35.6243
618 2 10.3472 7.13983 41.6504
619 2 3.19105 15.413 44.1909
620 2 19.3384 9.40406 36.0264
621 2 30.7358 12.4393 36.0414
622 2 27.8403 11.3108 36.014
623 1 25.4219 11.1636 39.739
624 1 28.7936 12.6613 38.1502
625 1 30.6303 8.74588 39.5368
626 1 23.7807 14.9124 37.9843
627 2 17.9322 6.96752 45.9536
628 2 28.4043 14.9995 38.9831
629 2 9.39281 9.71059 36.9099
630 2 9.83821 3.5594 38.9113
631 2 25.9706 13.0159 38.3405
632 2 20.5308 3.35028 38.5139
633 2 22.8959 12.7557 35.7399
634 2 24.6865 15.2824 44.0596
635 1 28.5735 11.0559 42.5593
636 1 21.606 12.7293 40.6851
637 1 23.3958 8.60634 42.6827
638 1 26.9757 15.0743 40.8126
639 2 12.9015 19.3506 42.654
640 2 13.1955 11.0951 41.3776
641 2 23.2211 12.2719 38.7464
642 2 9.44056 11.1342 47.2084
643 2 19.2979 21.4264 41.2379
644 2 23.3976 16.9032 39.8595
645 2 22.0409 21.2455 43.0607
646 2 12.92 12.3931 38.706
647 1 3.27953 11.1528 47.5545
648 1 25.0233 12.7333 43.5822
649 1 26.5932 8.96633 45.2704
650 1 30.4391 14.903 43.6015
651 2 6.29726 14.1368 43.7735
652 2 17.7067 18.3427 39.8147
653 2 16.7306 14.2493 43.8507
654 2 25.3694 5.49026 47.4778
655 2 18.3067 16.5015 41.5697
656 2 20.6379 18.2632 42.1507
657 2 18.9967 13.4114 40.9988
658 2 20.8144 2.41807 42.1076
659 1 23.2161 14.6609 46.4524
660 1 32.3525 11.2603 45.057
661 1 29.8806 9.21401 47.6673
662 1 19.6692 16.208 47.6178
663 2 32.1825 15.258 41.5578
664 2 2.81701 6.10242 40.7916
665 2 7.59441 0.328459 41.71
666 2 21.643 8.45253 45.0624
667 2 15.8902 11.0646 45.334
668 2 6.61655 2.40516 39.2649
669 2 4.53559 16.3968 39.0106
670 2 25.8249 22.8803 36.0157
671 1 26.6722 18.8201 31.4383
672 1 30.5519 20.5928 30
673 1 32.0719 16.6515 31.4383
674 1 25.1523 22.7614 30
675 2 27.6829 21.1294 30.2063
676 2 29.5413 18.2835 31.232
677 2 22.2833 22.2248 30.2063
678 2 24.1416 17.1881 31.232
679 2 30.0489 23.0832 30.6132
680 2 27.1753 16.3297 30.8251
681 2 24.6492 20.271 30.6132
682 2 21.7756 19.1419 30.8251
683 1 29.8999 18.8201 34.086
684 1 22.9803 20.5928 32.6477
685 1 24.5002 16.6515 34.086
686 1 28.3799 22.7614 32.6477
687 2 30.9105 21.1294 32.854
688 2 21.9696 18.2835 33.8797
689 2 25.5109 22.2248 32.854
690 2 27.3693 17.1881 33.8797
691 2 22.4772 23.0832 33.261
692 2 30.4029 16.3297 33.4728
693 2 27.8769 20.271 33.261
694 2 25.0033 19.1419 33.4728
695 1 22.5648 19.031 36.9584
696 1 26.4772 20.4967 35.5178
697 1 27.6267 16.3565 36.7741
698 1 31.6636 22.6841 35.4029
699 2 18.7029 2.5274 45.6007
700 2 14.831 14.0638 46.6632
701 2 29.0287 22.7196 35.327
702 2 17.7135 15.4182 38.6476
703 2 23.5211 21.1134 35.9827
704 2 17.9326 13.9312 35.3541
705 2 30.7274 16.9001 36.6089
706 2 25.2924 15.101 35.9001
707 1 25.5953 18.7644 39.6923
708 1 29.4656 20.2677 38.4754
709 1 30.737 16.2809 39.525
710 1 24.3109 22.5823 37.8405
711 2 25.3405 2.61074 36.6685
712 2 0.995519 21.8904 43.3008
713 2 17.4506 15.3263 46.7561
714 2 15.8481 4.39708 41.273
715 2 32.1453 2.5028 41.9351
716 2 9.47948 6.94757 46.2027
717 2 15.3949 9.47901 42.4121
718 2 30.8191 19.9419 36.1541
719 1 28.9633 18.8912 42.3443
720 1 21.8765 20.9915 40.5568
721 1 23.1942 16.6415 42.7142
722 1 27.3705 22.8302 40.9397
723 2 17.5626 2.36776 39.7913
724 2 23.9946 3.33801 41.5187
725 2 4.40739 8.63444 38.8707
726 2 8.88959 17.3459 36.6965
727 2 13.3575 10.1647 44.6847
728 2 22.9017 12.1918 47.0458
729 2 31.5684 11.6516 39.0275
730 2 15.4741 17.5755 42.7266
731 1 32.0955 19.0914 45.0736
732 1 24.9895 20.638 43.4121
733 1 26.7438 16.565 45.0686
734 1 30.8054 22.9089 43.8751
735 2 20.6945 14.3269 46.1583
736 2 24.8369 8.44314 47.3506
737 2 24.6188 10.1168 36.9393
738 2 12.1422 8.42838 36.38
739 2 15.9546 12.0212 41.7691
740 2 0.761254 16.6728 44.8094
741 2 18.1782 22.8047 38.4786
742 2 4.31272 13.9475 46.3007
743 1 25.3464 19.2993 46.8608
744 1 28.8605 20.6745 45.9631
745 1 30.261 16.2752 47.6055
746 1 23.0075 22.8597 46.1705
747 2 2.10251 20.2502 39.0235
748 2 25.9011 8.63345 39.1511
749 2 20.4231 18.5737 47.3331
750 2 13.6784 13.9926 40.981
751 2 7.8895 17.5247 44.7199
752 2 30.9356 18.9861 39.7682
753 2 21.4684 14.7592 48.8192
754 2 20.996 9.77331 42.5477
755 3 0.799449 0.866675 48.2219
756 3 30.7141 3.93404 47.2555
