variable        NSTEPS1         equal 600000000
variable        DUMP_FREQ       equal 100
variable        DUMP_FREQ1      equal 100
variable        TEMP            equal 550
variable        dt              equal 0.0005
variable     	  SEED1           equal 42771
variable	      SEED2           equal 54489 
variable        TAU_T           equal 0.05
variable        TAU_P           equal 0.25
variable        potential_path  string /path/to/graphs

units           metal
boundary        p p f

restart 100000 lmp.restart
atom_style      atomic
neigh_modify    delay 10 every 1

if "${rest}==1" then &	
	"read_data  data.lmp" &
else &
  "read_restart lmp${p_id}restart.*"
  
mass          1 137.327
mass          2 2.014
mass          3 14.0067
region	      1 block INF INF INF INF INF 35.0
group         bottom region 1
group         atoms1 subtract all bottom
group         hy type 2
group         ba type 1
group         hymob subtract all bottom ba

pair_style deepmd ${potential_path}/graph1.pb 
pair_coeff * *

# TIMESTEP
timestep	${dt}  #ps 
thermo          ${DUMP_FREQ}
thermo_style    custom step temp pe ke etotal #c_1[4] v_fitslope 
thermo_modify   flush yes

# DUMP
dump            myDump all xyz ${DUMP_FREQ1} dump.0.xyz
dump_modify     myDump append yes element Ba H N

# run- NVT
if "${rest}==1" then &
	"velocity        all create ${TEMP} ${SEED2} dist gaussian"

fix             4 all plumed plumedfile plumed.dat
fix             2 atoms1 nve
fix             3 atoms1 temp/csvr ${TEMP} ${TEMP} ${TAU_T} ${SEED2}
fix             5 all wall/reflect zlo 0.0 zhi 56.0
run             ${NSTEPS1}
