# LAMMPS data file
756 atoms
3 atom types
0.0 32.39794198551478 xlo xhi
0.0 23.64774 ylo yhi
0.0 77.32469402918946 zlo zhi

Atoms # atomic

1 1 7.28867 3.24394 31.493
2 1 11.1684 5.01654 30.0547
3 1 12.6883 1.07525 31.493
4 1 5.76871 7.18523 30.0547
5 2 8.29933 5.55316 30.261
6 2 10.1577 2.70732 31.2867
7 2 2.89968 6.64861 30.261
8 2 4.75805 1.61187 31.2867
9 2 10.6653 7.50699 30.6679
10 2 7.79173 0.75349 30.8798
11 2 5.26566 4.69478 30.6679
12 2 2.39207 3.5657 30.8798
13 1 10.5163 3.24394 34.1407
14 1 3.59668 5.01654 32.7024
15 1 5.11664 1.07525 34.1407
16 1 8.99634 7.18523 32.7024
17 2 11.527 5.55316 32.9087
18 2 2.58602 2.70732 33.9344
19 2 6.1273 6.64861 32.9087
20 2 7.98568 1.61187 33.9344
21 2 3.09363 7.50699 33.3157
22 2 11.0193 0.75349 33.5275
23 2 8.49329 4.69478 33.3157
24 2 5.61969 3.5657 33.5275
25 1 3.00429 3.27063 36.5909
26 1 6.66851 4.94896 35.4106
27 1 8.08999 1.22579 36.8425
28 1 12.2283 7.22065 35.3697
29 2 11.2408 20.5258 36.1268
30 2 14.1837 17.8655 39.2996
31 2 23.4251 7.35791 41.3067
32 2 9.90219 5.94409 41.2219
33 2 17.3981 5.46993 38.3948
34 3 30.631 7.65053 48.7236
35 2 31.1167 14.6777 35.722
36 2 6.60866 15.4661 35.9436
37 1 5.99102 3.41271 39.9437
38 1 9.90741 4.97218 38.2199
39 1 11.7526 0.643563 39.8113
40 1 4.58933 7.27535 38.0177
41 2 3.89414 20.4774 45.2075
42 2 24.4951 6.20194 43.5577
43 2 17.6238 17.364 42.6002
44 2 0.730477 2.54247 41.4862
45 2 12.0756 6.36295 37.7714
46 2 8.26313 15.4551 46.7587
47 2 11.36 19.6918 47.2865
48 2 18.3431 11.1208 44.6888
49 1 9.36325 3.17146 42.2688
50 1 2.57731 4.98025 40.5346
51 1 3.26596 1.2978 42.4084
52 1 7.81415 7.13152 40.8075
53 2 31.0914 0.990471 41.3526
54 2 28.4998 22.3852 46.4389
55 2 17.9131 13.753 38.352
56 2 25.713 5.04991 45.9179
57 2 17.1892 0.380691 39.2978
58 2 31.8848 21.3374 40.7907
59 2 30.7301 2.77367 39.0809
60 2 16.5806 18.9169 36.58
61 1 12.7306 3.06204 45.0085
62 1 6.04899 5.02561 43.8659
63 1 31.3781 21.4854 46.9393
64 1 11.01 7.25107 43.7311
65 2 4.54385 3.52084 42.2021
66 2 15.2382 11.3951 41.342
67 2 9.85516 8.54569 41.525
68 2 22.8212 7.12854 50.5999
69 2 31.5801 15.0485 38.7149
70 2 8.40618 13.7928 43.5918
71 2 18.3319 12.2295 41.7436
72 1 3.8922 7.61597 46.4155
73 1 7.28779 9.06774 44.8669
74 1 3.54607 22.8766 46.4299
75 1 2.90157 15.4754 46.1795
76 2 10.5543 21.2956 40.8161
77 2 3.54368 16.5315 36.2411
78 2 19.0235 14.426 43.7267
79 2 11.9738 2.13399 42.1417
80 2 28.1422 8.41111 39.1902
81 2 0.908479 20.4999 35.9844
82 2 11.767 4.73864 35.8856
83 1 7.28867 11.1265 31.493
84 1 11.1684 12.8992 30.0547
85 1 12.6883 8.95783 31.493
86 1 5.76871 15.0678 30.0547
87 2 8.29933 13.4358 30.261
88 2 10.1577 10.5899 31.2867
89 2 2.89968 14.5312 30.261
90 2 4.75805 9.49445 31.2867
91 2 10.6653 15.3895 30.6679
92 2 7.79173 8.63607 30.8798
93 2 5.26566 12.5773 30.6679
94 2 2.39207 11.4482 30.8798
95 1 10.5163 11.1265 34.1407
96 1 3.59668 12.8992 32.7024
97 1 5.11664 8.95783 34.1407
98 1 8.99634 15.0678 32.7024
99 2 11.527 13.4358 32.9087
100 2 2.58602 10.5899 33.9344
101 2 6.1273 14.5312 32.9087
102 2 7.98568 9.49445 33.9344
103 2 3.09363 15.3895 33.3157
104 2 11.0193 8.63607 33.5275
105 2 8.49329 12.5773 33.3157
106 2 5.61969 11.4482 33.5275
107 1 3.08642 11.02 36.7697
108 1 6.6504 12.9348 35.2294
109 1 8.21187 8.91779 36.8006
110 1 12.3542 15.2172 35.5034
111 2 21.6785 5.01142 44.4242
112 2 22.0595 3.35393 47.7321
113 3 22.0935 10.635 50.5858
114 2 19.9053 2.71016 39.886
115 2 8.73289 18.3603 39.8068
116 2 27.421 2.52772 36.2663
117 2 7.30752 13.3545 38.1321
118 1 6.0124 11.2535 39.8099
119 1 10.2109 13.2214 38.1468
120 1 11.7552 8.97161 39.4895
121 1 4.61246 15.0153 37.8767
122 2 15.9658 14.4426 41.1942
123 2 0.963863 4.90005 35.9398
124 2 14.0349 7.54613 40.7747
125 2 3.94028 1.76718 39.7592
126 2 6.96874 12.1276 41.7051
127 2 1.29632 10.4145 41.7957
128 1 9.59216 11.2859 42.2557
129 1 2.43198 12.4082 41.0158
130 1 4.10036 8.43815 42.4684
131 1 7.63977 15.4111 41.154
132 2 13.0428 16.101 44.2147
133 2 4.16223 13.5438 35.875
134 2 -0.022907 4.533 44.6188
135 2 12.7897 23.1647 41.6325
136 2 17.2751 23.1753 43.4711
137 2 15.8995 10.5145 45.0189
138 2 22.8351 4.51196 35.7921
139 2 4.26664 19.6431 41.8829
140 1 12.9763 10.4201 45.2054
141 1 5.5873 13.0875 43.8697
142 1 10.1304 16.9045 47.7209
143 1 10.8936 15.0275 43.6748
144 2 3.50718 5.81029 43.8032
145 2 10.6073 9.69069 44.49
146 2 30.5945 10.07 39.3048
147 2 12.8344 15.3357 41.2813
148 3 16.7576 5.88908 46.2331
149 2 18.3556 20.1796 41.5214
150 2 11.1182 12.5362 44.7915
151 2 19.861 11.683 36.0852
152 1 8.69087 12.9927 46.2492
153 1 1.84495 19.3961 44.872
154 1 16.0138 3.13146 47.6803
155 1 5.33183 10.4865 48.5534
156 2 26.0284 3.22067 42.2298
157 2 21.4895 13.25 41.022
158 2 6.06013 23.2823 36.4509
159 2 6.00435 15.4789 43.3926
160 2 22.7311 11.2633 39.146
161 2 7.23633 4.6151 41.7528
162 2 28.7213 17.3513 42.3347
163 2 27.6488 23.4103 36.1295
164 1 7.28867 19.009 31.493
165 1 11.1684 20.7817 30.0547
166 1 12.6883 16.8405 31.493
167 1 5.76871 22.9504 30.0547
168 2 8.29933 21.3183 30.261
169 2 10.1577 18.4724 31.2867
170 2 2.89968 22.4138 30.261
171 2 4.75805 17.3771 31.2867
172 2 10.6653 23.2721 30.6679
173 2 7.79173 16.5187 30.8798
174 2 5.26566 20.4599 30.6679
175 2 2.39207 19.3309 30.8798
176 1 10.5163 19.009 34.1407
177 1 3.59668 20.7817 32.7024
178 1 5.11664 16.8405 34.1407
179 1 8.99634 22.9504 32.7024
180 2 11.527 21.3183 32.9087
181 2 2.58602 18.4724 33.9344
182 2 6.1273 22.4138 32.9087
183 2 7.98568 17.3771 33.9344
184 2 3.09363 23.2721 33.3157
185 2 11.0193 16.5187 33.5275
186 2 8.49329 20.4599 33.3157
187 2 5.61969 19.3309 33.5275
188 1 2.52757 19.2092 36.7512
189 1 6.74958 20.8415 35.2555
190 1 8.1237 16.8975 36.8794
191 1 11.9389 22.7816 35.4939
192 2 16.6766 2.22476 36.8102
193 2 2.13228 7.29208 41.3767
194 2 25.977 12.7177 38.3153
195 2 0.202464 17.6931 36.2724
196 2 28.9942 4.45988 41.6922
197 2 7.69691 19.8803 44.0775
198 2 3.27184 8.90272 36.3065
199 2 0.991311 22.0107 45.9118
200 1 6.32306 19.2161 39.0961
201 1 9.85064 20.5685 38.2694
202 1 11.3608 16.9518 39.9634
203 1 4.35063 22.8812 38.3087
204 2 9.06958 14.6097 36.1809
205 2 23.2252 3.34695 39.0417
206 2 2.54288 1.71224 44.6509
207 2 23.4195 18.5284 42.0478
208 2 17.2388 9.31301 41.6561
209 2 23.3331 6.83388 38.4602
210 2 4.09872 4.63153 38.8676
211 2 20.1702 15.3029 35.6806
212 1 9.41245 19.6624 42.3116
213 1 2.24601 20.3036 40.6116
214 1 4.08536 16.9307 42.2947
215 1 7.92699 23.2423 40.6954
216 2 26.8459 23.2344 44.8337
217 2 9.87605 0.675049 41.5951
218 2 25.5855 1.51518 39.8341
219 2 14.679 2.1031 39.7105
220 2 30.8712 22.63 35.5193
221 2 14.7707 9.08395 39.6487
222 2 14.9932 19.3426 42.0412
223 2 28.1553 15.2212 35.8268
224 1 14.0231 22.2046 47.079
225 1 5.71698 21.1296 43.3195
226 1 13.8129 14.4526 46.0832
227 1 11.0752 23.1965 43.7501
228 2 25.3639 13.468 35.7117
229 2 10.2005 13.8649 41.2346
230 2 4.38035 5.64701 36.0155
231 2 9.45489 15.8692 39.1403
232 2 7.48497 20.7348 41.1639
233 2 22.0111 17.9434 36.9187
234 2 2.55388 14.7453 40.7845
235 1 7.2558 16.8896 45.0705
236 1 8.82401 20.5495 46.4031
237 1 20.0891 12.2135 50.4455
238 1 4.67554 18.8193 47.2876
239 2 6.81358 22.1226 46.119
240 2 12.1628 3.44025 39.1983
241 2 20.0226 6.79962 46.1237
242 2 4.83012 4.17978 46.2192
243 2 9.67091 23.1506 38.1033
244 2 14.9134 4.93541 39.4011
245 2 16.7081 22.0662 46.6651
246 1 18.0879 3.24394 31.493
247 1 21.9676 5.01654 30.0547
248 1 23.4876 1.07525 31.493
249 1 16.568 7.18523 30.0547
250 2 19.0986 5.55316 30.261
251 2 20.957 2.70732 31.2867
252 2 13.6989 6.64861 30.261
253 2 15.5573 1.61187 31.2867
254 2 21.4646 7.50699 30.6679
255 2 18.591 0.75349 30.8798
256 2 16.0649 4.69478 30.6679
257 2 13.1913 3.5657 30.8798
258 1 21.3157 3.24394 34.1407
259 1 14.3959 5.01654 32.7024
260 1 15.916 1.07525 34.1407
261 1 19.7956 7.18523 32.7024
262 2 22.3263 5.55316 32.9087
263 2 13.3854 2.70732 33.9344
264 2 16.9266 6.64861 32.9087
265 2 18.7849 1.61187 33.9344
266 2 13.893 7.50699 33.3157
267 2 21.8187 0.75349 33.5275
268 2 19.2925 4.69478 33.3157
269 2 16.419 3.5657 33.5275
270 1 13.901 3.41018 37.2223
271 1 17.7187 5.03698 35.4023
272 1 19.1734 0.770712 37.0783
273 1 22.9682 7.01816 35.3188
274 2 23.3393 14.6579 38.0479
275 2 27.7197 6.29426 46.7778
276 2 31.3516 7.10807 38.8921
277 2 16.8763 7.1998 43.079
278 2 4.09299 16.3198 48.3978
279 2 2.31966 8.61004 44.7228
280 2 17.1867 15.6089 36.1549
281 2 6.23329 14.3 46.0605
282 1 17.1562 3.30843 39.6035
283 1 20.992 4.99881 37.918
284 1 22.3304 1.20039 39.4002
285 1 15.3036 7.26948 38.3211
286 2 6.43872 16.6002 38.8178
287 2 24.1476 8.86922 44.5914
288 2 26.8898 13.9108 40.8052
289 2 26.5427 22.6033 40.5667
290 2 20.7259 8.60164 41.8279
291 2 25.7783 5.45688 36.387
292 2 1.32306 14.6856 37.6215
293 1 20.3259 3.16256 42.4276
294 1 13.2778 4.66038 41.1244
295 1 15.1796 0.795609 42.6115
296 1 18.5754 7.1816 40.4969
297 2 1.29414 10.8894 39.057
298 3 17.4244 13.7571 46.4426
299 2 4.86591 10.7615 45.5791
300 2 0.633895 1.649 36.4955
301 2 6.37567 7.5373 35.8684
302 2 13.3647 0.317881 45.018
303 2 20.1378 18.487 39.625
304 2 25.8085 5.39823 49.3179
305 1 23.64 3.42926 45.0666
306 1 16.6449 4.60843 43.9722
307 1 19.8464 4.33253 46.8941
308 1 21.8677 7.58537 43.8288
309 2 20.5713 9.51011 45.1371
310 2 12.4612 22.1031 38.7071
311 2 27.5056 7.78331 43.9864
312 2 21.2922 5.16051 40.7834
313 2 10.6486 1.80791 44.7096
314 2 19.7608 10.2031 39.403
315 1 23.5962 12.7527 49.3275
316 1 21.1192 1.05482 47.7655
317 1 23.4161 20.3974 49.2134
318 1 6.89719 1.06958 45.5256
319 2 20.3764 6.58522 35.507
320 3 30.1241 14.2775 43.1499
321 2 3.19811 0.264139 36.0664
322 2 14.3759 5.18701 35.4043
323 2 1.74325 21.9175 37.8827
324 2 14.1888 8.75381 36.4556
325 2 31.3673 8.37807 42.2713
326 2 29.4463 12.225 40.6642
327 1 18.0879 11.1265 31.493
328 1 21.9676 12.8992 30.0547
329 1 23.4876 8.95783 31.493
330 1 16.568 15.0678 30.0547
331 2 19.0986 13.4358 30.261
332 2 20.957 10.5899 31.2867
333 2 13.6989 14.5312 30.261
334 2 15.5573 9.49445 31.2867
335 2 21.4646 15.3895 30.6679
336 2 18.591 8.63607 30.8798
337 2 16.0649 12.5773 30.6679
338 2 13.1913 11.4482 30.8798
339 1 21.3157 11.1265 34.1407
340 1 14.3959 12.8992 32.7024
341 1 15.916 8.95783 34.1407
342 1 19.7956 15.0678 32.7024
343 2 22.3263 13.4358 32.9087
344 2 13.3854 10.5899 33.9344
345 2 16.9266 14.5312 32.9087
346 2 18.7849 9.49445 33.9344
347 2 13.893 15.3895 33.3157
348 2 21.8187 8.63607 33.5275
349 2 19.2925 12.5773 33.3157
350 2 16.419 11.4482 33.5275
351 1 13.843 11.4773 36.6889
352 1 17.7136 13.122 35.4285
353 1 19.5345 8.97173 36.7618
354 1 23.0698 14.931 35.3877
355 2 20.0709 21.6471 43.8888
356 2 9.33109 22.7667 35.1607
357 2 30.2094 11.0637 36.1256
358 2 0.365125 15.8868 45.2581
359 2 2.83171 13.8809 43.4455
360 2 17.7248 8.56172 38.7724
361 2 6.31621 0.711123 38.6923
362 2 8.76001 6.16226 35.7926
363 1 17.0374 10.9844 39.6443
364 1 20.8123 12.9827 38.408
365 1 22.1012 8.83331 39.7707
366 1 15.3582 15.4238 38.0856
367 2 21.7511 21.206 41.5899
368 2 4.08099 20.3113 39.0289
369 2 28.2505 21.0477 38.132
370 2 27.8925 10.0801 42.4441
371 2 29.8177 18.8512 39.37
372 2 30.1123 19.1437 48.2809
373 2 25.6785 20.8257 35.3627
374 2 25.9092 20.7891 46.7557
375 1 20.4962 11.2858 42.7487
376 1 13.3855 12.8798 40.9323
377 1 15.0187 9.11068 42.5345
378 1 18.4624 15.2171 40.9678
379 2 24.9717 0.627579 35.9832
380 2 29.1434 5.25413 38.6821
381 2 4.24192 11.1069 42.8842
382 2 1.94384 23.176 40.8846
383 2 11.3305 9.64616 37.1308
384 2 11.1095 20.5519 43.964
385 2 28.0862 0.916543 47.2792
386 2 28.8166 4.10265 48.9184
387 1 23.8976 11.2824 45.6002
388 1 16.5947 12.814 43.5343
389 1 17.7766 8.27712 45.2932
390 1 22.002 14.9821 43.8832
391 2 7.6897 6.73812 43.7525
392 2 25.2045 9.38506 39.9581
393 3 13.6339 4.16355 47.2972
394 2 25.9952 4.90444 38.8451
395 2 14.3435 20.9381 44.9407
396 2 24.8751 16.3477 36.0693
397 2 23.4445 23.4709 41.3004
398 3 18.593 2.03022 47.8348
399 1 16.4696 11.2222 47.3794
400 1 19.925 12.9409 46.3711
401 1 27.0435 3.46313 47.4885
402 1 14.3678 6.59278 46.8947
403 2 21.8544 12.2052 44.4525
404 2 7.29181 1.68634 42.5535
405 3 7.26917 18.5886 47.1849
406 2 22.0508 12.5498 36.1739
407 2 23.313 23.0917 48.9537
408 2 20.727 23.1811 38.4731
409 2 20.3324 22.9903 46.4344
410 2 19.9183 22.5405 35.4444
411 1 18.0879 19.009 31.493
412 1 21.9676 20.7817 30.0547
413 1 23.4876 16.8405 31.493
414 1 16.568 22.9504 30.0547
415 2 19.0986 21.3183 30.261
416 2 20.957 18.4724 31.2867
417 2 13.6989 22.4138 30.261
418 2 15.5573 17.3771 31.2867
419 2 21.4646 23.2721 30.6679
420 2 18.591 16.5187 30.8798
421 2 16.0649 20.4599 30.6679
422 2 13.1913 19.3309 30.8798
423 1 21.3157 19.009 34.1407
424 1 14.3959 20.7817 32.7024
425 1 15.916 16.8405 34.1407
426 1 19.7956 22.9504 32.7024
427 2 22.3263 21.3183 32.9087
428 2 13.3854 18.4724 33.9344
429 2 16.9266 22.4138 32.9087
430 2 18.7849 17.3771 33.9344
431 2 13.893 23.2721 33.3157
432 2 21.8187 16.5187 33.5275
433 2 19.2925 20.4599 33.3157
434 2 16.419 19.3309 33.5275
435 1 13.7019 18.9956 36.7076
436 1 17.6525 20.8644 35.2332
437 1 19.176 17.2449 36.7999
438 1 23.0553 22.8185 35.2937
439 2 23.2203 10.4008 42.5649
440 2 11.3236 12.4138 35.9617
441 2 6.19576 8.65971 47.2725
442 2 18.0749 4.95625 41.5267
443 2 19.6246 19.6788 36.2367
444 2 5.52209 7.56958 44.433
445 2 25.8273 19.7364 49.7965
446 2 23.3153 22.4548 38.0096
447 1 17.0273 19.1789 39.4353
448 1 21.0198 20.7508 38.2495
449 1 22.5154 16.6701 39.7226
450 1 15.2384 23.2748 37.984
451 2 18.2263 19.068 45.1667
452 2 9.48582 7.48962 38.7641
453 2 16.1753 2.35107 45.0128
454 2 14.8989 13.5514 35.5635
455 2 25.3445 16.8883 39.7909
456 2 27.647 7.49174 36.2568
457 2 2.85174 13.0443 47.0066
458 2 9.15307 3.53443 36.1846
459 1 20.5067 19.0381 42.505
460 1 13.2977 20.4575 40.8349
461 1 14.7683 16.7308 42.3994
462 1 18.6518 22.8527 41.2762
463 2 24.2758 21.4571 43.6279
464 2 25.4597 11.5947 42.9244
465 2 29.3115 3.84265 45.1495
466 3 1.41608 6.56165 46.6272
467 2 14.4533 3.32789 43.03
468 2 28.25 0.332602 38.8781
469 2 17.8842 16.4873 38.7566
470 2 24.8591 8.42478 35.9021
471 1 23.9241 19.2151 45.0586
472 1 16.6219 20.2696 43.8852
473 1 17.8689 16.0677 45.3457
474 1 22.1523 23.3482 43.5756
475 2 25.1858 14.6913 43.6865
476 2 12.7542 16.6765 46.9631
477 2 31.0058 6.30222 35.5733
478 2 26.7268 6.81437 41.2033
479 2 21.1078 19.0017 48.7553
480 2 0.418179 12.5341 43.3806
481 2 20.2372 7.2406 38.712
482 2 23.9353 18.1669 47.6052
483 1 12.6777 18.6698 44.875
484 1 19.8247 20.2955 46.4966
485 1 20.8424 8.62834 48.4696
486 1 17.9763 0.325564 45.7819
487 2 8.85754 10.5401 39.4927
488 2 5.08139 14.078 40.8864
489 2 8.41427 11.2786 35.5656
490 2 28.9121 13.3381 37.9001
491 3 26.6431 17.6033 45.4569
492 2 10.4471 17.3496 45.0116
493 2 26.3741 2.33854 44.87
494 2 9.69935 16.6791 42.0322
495 1 28.8873 3.24394 31.493
496 1 0.369008 5.01654 30.0547
497 1 1.88901 1.07525 31.493
498 1 27.3673 7.18523 30.0547
499 2 29.898 5.55316 30.261
500 2 31.7564 2.70732 31.2867
501 2 24.4983 6.64861 30.261
502 2 26.3566 1.61187 31.2867
503 2 32.264 7.50699 30.6679
504 2 29.3904 0.75349 30.8798
505 2 26.8642 4.69478 30.6679
506 2 23.9906 3.5657 30.8798
507 1 32.115 3.24394 34.1407
508 1 25.1954 5.01654 32.7024
509 1 26.7153 1.07525 34.1407
510 1 30.595 7.18523 32.7024
511 2 0.727608 5.55316 32.9087
512 2 24.1847 2.70732 33.9344
513 2 27.726 6.64861 32.9087
514 2 29.5844 1.61187 33.9344
515 2 24.6923 7.50699 33.3157
516 2 0.220008 0.75349 33.5275
517 2 30.092 4.69478 33.3157
518 2 27.2184 3.5657 33.5275
519 1 24.9958 3.09198 37.085
520 1 28.4971 4.98764 35.7618
521 1 30.0328 0.789395 36.7354
522 1 1.39421 7.22819 35.3441
523 2 15.8278 15.3104 44.0638
524 2 25.5639 20.3589 38.9971
525 2 21.9929 9.64472 36.3129
526 3 26.8007 10.2126 45.886
527 2 17.3491 2.38452 42.331
528 2 26.9153 17.9501 37.0283
529 2 11.0079 17.1826 36.4747
530 2 16.9594 7.29092 36.0372
531 1 27.9109 3.00907 39.7377
532 1 31.8661 4.80297 38.111
533 1 0.564086 1.08331 39.5625
534 1 26.1532 7.18036 38.3345
535 2 7.77816 11.4706 44.3456
536 2 21.942 1.37046 36.2599
537 2 16.7573 10.3488 36.3791
538 2 24.4592 2.7967 47.378
539 2 25.6706 11.3522 50.1512
540 2 24.007 0.718012 44.6892
541 2 15.1028 0.616316 47.1763
542 1 31.1743 3.33453 42.7266
543 1 24.0467 4.97827 41.1249
544 1 25.6579 0.693013 42.4665
545 1 29.6512 7.18109 41.1559
546 3 31.095 19.7569 45.0367
547 2 12.6931 14.7191 38.0207
548 2 14.2261 16.5004 36.2645
549 2 3.64279 17.7091 39.5555
550 2 6.61258 9.4107 42.187
551 2 15.051 12.8426 38.8492
552 2 22.4879 20.2567 35.9344
553 2 32.1919 13.5695 40.9947
554 1 2.12843 3.91575 46.0192
555 1 27.3307 5.13485 43.8582
556 1 23.2674 5.05559 49.3608
557 1 0.349708 7.10929 43.82
558 3 18.982 10.845 48.3461
559 3 21.208 13.9459 48.9611
560 2 22.6699 20.1998 46.7545
561 2 31.1587 23.4236 38.9106
562 3 6.97125 12.5338 48.4706
563 2 13.8501 12.2208 46.7557
564 2 0.358756 9.50848 36.6861
565 2 23.0775 2.34203 42.1914
566 1 25.4658 7.83884 46.3751
567 1 27.3712 11.2384 47.9855
568 1 30.8734 13.0661 45.6387
569 1 28.1907 6.70906 49.3805
570 2 23.318 10.3038 48.2908
571 2 12.1744 12.1661 38.9375
572 2 12.7424 0.914904 37.3792
573 2 18.2138 21.7048 38.0007
574 2 18.8668 3.73283 44.3741
575 2 3.6238 9.34375 39.592
576 2 1.6857 6.40464 37.913
577 2 6.65476 8.72737 38.8692
578 1 28.8873 11.1265 31.493
579 1 0.369008 12.8992 30.0547
580 1 1.88901 8.95783 31.493
581 1 27.3673 15.0678 30.0547
582 2 29.898 13.4358 30.261
583 2 31.7564 10.5899 31.2867
584 2 24.4983 14.5312 30.261
585 2 26.3566 9.49445 31.2867
586 2 32.264 15.3895 30.6679
587 2 29.3904 8.63607 30.8798
588 2 26.8642 12.5773 30.6679
589 2 23.9906 11.4482 30.8798
590 1 32.115 11.1265 34.1407
591 1 25.1954 12.8992 32.7024
592 1 26.7153 8.95783 34.1407
593 1 30.595 15.0678 32.7024
594 2 0.727608 13.4358 32.9087
595 2 24.1847 10.5899 33.9344
596 2 27.726 14.5312 32.9087
597 2 29.5844 9.49445 33.9344
598 2 24.6923 15.3895 33.3157
599 2 0.220008 8.63607 33.5275
600 2 30.092 12.5773 33.3157
601 2 27.2184 11.4482 33.5275
602 1 24.1948 11.0646 36.6776
603 1 28.3589 12.8756 35.3332
604 1 29.8969 8.70803 37.1877
605 1 1.44869 15.0778 35.1928
606 2 15.5691 17.7617 44.7815
607 2 30.2887 19.2635 36.3814
608 2 16.728 23.1274 35.9762
609 3 13.4069 7.7129 44.4561
610 2 21.1686 1.63976 44.9758
611 2 23.9849 15.1424 41.034
612 2 30.0551 5.8619 43.8698
613 1 27.4762 11.1434 39.4786
614 1 31.5664 12.618 38.0517
615 1 0.772488 8.61692 39.4393
616 1 26.25 15.0625 37.8881
617 2 24.8343 15.4997 48.6668
618 2 5.06145 0.953966 47.2968
619 2 20.4389 15.5299 45.5324
620 2 20.1979 15.2517 38.9771
621 2 30.4002 15.0541 47.1531
622 2 10.9396 14.8686 46.2617
623 2 31.3027 7.89902 45.6784
624 1 31.2903 11.1823 41.935
625 1 24.1661 12.5611 40.9034
626 1 25.4275 8.67827 42.3558
627 1 29.6338 15.0686 40.5222
628 2 11.9995 4.95132 43.4399
629 2 26.1212 19.6583 42.5373
630 2 21.3088 18.094 45.0049
631 2 23.5269 16.5225 45.4139
632 2 7.14711 21.0999 37.8136
633 2 5.26033 22.9378 41.6823
634 2 8.84701 2.3934 39.5719
635 1 2.34217 11.1915 44.8631
636 1 27.9271 12.7503 43.437
637 1 29.2541 9.16054 45.4304
638 1 0.389962 15.1692 42.7915
639 3 1.23674 18.2 42.4958
640 2 31.7418 17.1915 40.5464
641 2 22.4926 14.0367 46.0606
642 2 28.0915 1.24571 41.9405
643 2 29.845 11.177 44.4338
644 2 23.5141 7.21962 47.8354
645 2 0.882667 12.5689 35.9225
646 2 13.8113 12.8264 44.0455
647 1 24.3138 9.08561 50.6757
648 1 6.46205 14.9462 48.6764
649 1 0.168188 8.79222 47.5799
650 1 21.9634 16.6181 47.6399
651 2 5.67673 10.0993 36.8649
652 2 32.2879 5.54674 40.8456
653 2 8.64843 22.2215 44.0613
654 2 4.75953 23.9321 44.511
655 2 1.45866 3.28602 38.9966
656 2 25.0999 12.9656 47.1194
657 2 12.4614 18.481 42.3472
658 2 22.9906 19.2227 39.0268
659 1 28.8873 19.009 31.493
660 1 0.369008 20.7817 30.0547
661 1 1.88901 16.8405 31.493
662 1 27.3673 22.9504 30.0547
663 2 29.898 21.3183 30.261
664 2 31.7564 18.4724 31.2867
665 2 24.4983 22.4138 30.261
666 2 26.3566 17.3771 31.2867
667 2 32.264 23.2721 30.6679
668 2 29.3904 16.5187 30.8798
669 2 26.8642 20.4599 30.6679
670 2 23.9906 19.3309 30.8798
671 1 32.115 19.009 34.1407
672 1 25.1954 20.7817 32.7024
673 1 26.7153 16.8405 34.1407
674 1 30.595 22.9504 32.7024
675 2 0.727608 21.3183 32.9087
676 2 24.1847 18.4724 33.9344
677 2 27.726 22.4138 32.9087
678 2 29.5844 17.3771 33.9344
679 2 24.6923 23.2721 33.3157
680 2 0.220008 16.5187 33.5275
681 2 30.092 20.4599 33.3157
682 2 27.2184 19.3309 33.5275
683 1 24.2979 18.8816 36.6956
684 1 28.2122 20.6558 35.3807
685 1 29.9579 16.6568 37.1559
686 1 1.33179 22.8635 35.3825
687 2 16.397 8.72298 47.7708
688 2 27.3005 10.6414 36.4635
689 2 31.4818 1.48012 44.4191
690 2 32.1869 9.96918 45.1622
691 3 4.43644 17.4972 45.1178
692 2 20.4566 5.56854 49.1349
693 2 20.5971 0.605834 41.5223
694 2 29.6293 22.52 43.4014
695 1 27.503 19.0115 39.8546
696 1 31.3484 20.7239 37.9225
697 1 1.06771 16.6063 39.2247
698 1 25.9737 23.0112 37.8564
699 2 11.8883 19.2913 38.974
700 2 8.15068 3.2411 44.7746
701 2 3.82592 12.5881 38.2673
702 2 30.2265 10.666 47.5464
703 2 2.81547 21.1436 48.3266
704 2 6.92572 5.42151 38.2152
705 2 12.583 10.1543 42.4918
706 2 3.65746 21.4346 35.5436
707 1 30.8901 18.8105 42.2238
708 1 24.1809 20.6965 41.1765
709 1 26.2263 16.9111 42.7863
710 1 29.1854 22.5374 40.7859
711 2 26.4513 8.54709 49.4323
712 2 5.73603 2.87893 36.3079
713 2 6.00444 18.5589 36.2681
714 2 2.53495 22.2931 44.0135
715 2 15.741 22.3867 41.1464
716 2 1.24524 17.6177 46.9986
717 2 0.624897 19.3086 38.512
718 1 31.0066 17.4503 46.2959
719 1 27.6936 20.5576 44.6456
720 1 26.8926 18.5654 47.7351
721 1 0.249409 23.0615 43.3076
722 2 8.84653 15.4839 49.5988
723 2 29.0065 20.3097 41.7739
724 2 19.6734 3.43094 36.3854
725 2 14.8586 20.5746 38.5741
726 2 5.18899 6.36141 40.913
727 2 2.95323 9.63687 47.4315
728 2 7.01096 18.1403 42.1274
729 1 25.5681 0.106198 46.853
730 1 25.6047 15.2334 46.2471
731 1 30.6066 5.55306 46.9636
732 1 29.0231 0.87779 45.0724
733 2 28.0549 13.0692 46.1158
734 2 28.2286 16.6341 38.6805
735 2 8.88916 19.1688 35.9743
736 2 20.7344 16.4059 41.6117
737 2 30.6492 3.17708 36.2981
738 2 14.1114 21.3327 35.1703
739 2 18.7066 1.79081 48.8609
740 2 20.6465 14.6451 49.5664
741 2 14.1373 7.14831 44.0018
742 2 4.65384 18.2906 44.4599
743 2 30.5488 20.6467 44.7252
744 2 16.9736 14.2478 47.3426
745 2 0.866535 18.1633 41.5088
746 2 27.5719 17.4851 45.0843
747 2 26.9849 10.0703 44.8775
748 2 7.23144 18.6597 48.2742
749 2 21.6576 10.1932 51.4696
750 2 12.947 3.52825 47.7572
751 2 30.4023 8.65481 48.8887
752 2 7.85379 12.6205 49.1584
753 2 29.7436 15.0919 43.8091
754 2 17.0387 6.06088 47.2726
755 2 1.70323 6.31799 47.6834
756 2 18.1861 10.4003 48.7874
