# LAMMPS data file
756 atoms
3 atom types
0.0 32.39794198551478 xlo xhi
0.0 23.64774 ylo yhi
0.0 77.32469402918946 zlo zhi

Atoms # atomic

1 1 5.07362 3.05499 31.4383
2 1 8.95332 4.82759 30
3 1 10.4733 0.886302 31.4383
4 1 3.55366 6.99628 30
5 2 6.08428 5.36421 30.2063
6 2 7.94266 2.51837 31.232
7 2 0.684626 6.45966 30.2063
8 2 2.543 1.42292 31.232
9 2 8.45027 7.31804 30.6132
10 2 5.57667 0.564542 30.8251
11 2 3.05061 4.50583 30.6132
12 2 0.177018 3.37675 30.8251
13 1 8.30125 3.05499 34.086
14 1 1.38163 4.82759 32.6477
15 1 2.90159 0.886302 34.086
16 1 6.78129 6.99628 32.6477
17 2 9.31191 5.36421 32.854
18 2 0.370971 2.51837 33.8797
19 2 3.91225 6.45966 32.854
20 2 5.77063 1.42292 33.8797
21 2 0.878579 7.31804 33.261
22 2 8.8043 0.564542 33.4728
23 2 6.27824 4.50583 33.261
24 2 3.40464 3.37675 33.4728
25 1 0.649357 3.1869 37.0067
26 1 4.51191 4.99069 35.4576
27 1 5.84008 1.12736 36.5398
28 1 10.0742 7.11259 35.4841
29 2 2.05611 5.59676 35.7395
30 2 3.04772 2.29088 36.6463
31 2 7.34365 6.74578 35.1418
32 2 8.9229 1.77198 36.8821
33 2 3.84074 7.42367 36.086
34 2 1.06836 0.551206 36.4716
35 2 9.58614 4.74808 36.073
36 2 6.61625 3.63402 35.8713
37 1 3.92519 2.82678 39.6149
38 1 7.97766 4.58096 37.9532
39 1 9.22394 0.902849 39.6325
40 1 2.31074 7.0074 37.9717
41 2 5.45212 5.8745 38.1427
42 2 6.63924 2.18261 39.0902
43 2 10.3176 6.37382 38.5717
44 2 1.19925 1.15846 39.273
45 2 7.62522 7.18781 38.5982
46 2 4.40111 0.239059 38.6789
47 2 2.00818 4.41237 38.7542
48 2 9.91652 3.60055 38.7858
49 1 7.23874 3.18002 42.424
50 1 0.261535 4.74714 40.7818
51 1 1.39117 1.04028 42.2549
52 1 5.71554 6.70433 40.6348
53 2 8.51688 5.12641 40.6764
54 2 7.54274 1.7144 45.1446
55 2 31.9941 7.191 41.5286
56 2 2.50718 22.2305 41.2365
57 2 10.3957 7.52416 41.6585
58 2 7.40974 0.423487 41.9675
59 2 5.36958 4.17518 41.0291
60 2 14.898 5.12771 46.203
61 1 10.6524 2.94958 45.0962
62 1 3.29458 5.09222 43.4496
63 1 5.03716 0.908329 44.9239
64 1 8.86005 6.91562 43.7615
65 2 10.2687 0.721766 44.3861
66 2 5.6114 11.1104 44.251
67 2 10.0621 6.72346 46.4568
68 2 30.2743 3.74816 47.1336
69 2 6.84338 7.04521 46.5329
70 2 0.92397 4.96643 46.7728
71 2 12.9711 3.42601 41.6513
72 2 2.17063 3.35924 41.6397
73 1 2.61101 3.25725 47.4009
74 1 6.61857 4.64941 46.194
75 1 8.29675 0.880617 47.3505
76 1 1.5517 7.3882 46.3746
77 2 4.3185 0.510982 41.7676
78 2 9.83107 2.34904 41.8459
79 2 11.2608 8.39346 44.4999
80 2 27.8057 23.5317 47.5843
81 2 5.76546 14.2813 43.2325
82 2 17.4239 23.4586 46.1044
83 2 3.5944 20.6777 46.1974
84 2 8.728 3.30792 46.9923
85 1 5.07362 10.9376 31.4383
86 1 8.95332 12.7102 30
87 1 10.4733 8.76888 31.4383
88 1 3.55366 14.8789 30
89 2 6.08428 13.2468 30.2063
90 2 7.94266 10.401 31.232
91 2 0.684626 14.3422 30.2063
92 2 2.543 9.3055 31.232
93 2 8.45027 15.2006 30.6132
94 2 5.57667 8.44712 30.8251
95 2 3.05061 12.3884 30.6132
96 2 0.177018 11.2593 30.8251
97 1 8.30125 10.9376 34.086
98 1 1.38163 12.7102 32.6477
99 1 2.90159 8.76888 34.086
100 1 6.78129 14.8789 32.6477
101 2 9.31191 13.2468 32.854
102 2 0.370971 10.401 33.8797
103 2 3.91225 14.3422 32.854
104 2 5.77063 9.3055 33.8797
105 2 0.878579 15.2006 33.261
106 2 8.8043 8.44712 33.4728
107 2 6.27824 12.3884 33.261
108 2 3.40464 11.2593 33.4728
109 1 0.694944 10.8911 36.8728
110 1 4.5191 12.4587 35.483
111 1 6.14849 8.77066 37.047
112 1 10.0669 14.8434 35.363
113 2 1.68519 13.3634 35.4332
114 2 3.46116 10.0014 36.8299
115 2 7.30888 13.9863 35.5584
116 2 8.96634 9.24303 36.9931
117 2 4.25554 14.9645 35.9989
118 2 1.26699 8.71675 35.8314
119 2 9.78112 12.5283 36.3627
120 2 6.79161 10.8971 35.9682
121 1 3.93001 10.6179 39.6604
122 1 7.77117 12.6824 37.996
123 1 9.11004 8.65302 39.7131
124 1 2.38236 14.8531 38.0064
125 2 4.87973 13.0952 38.0406
126 2 4.41414 8.35419 38.8828
127 2 13.5978 14.5475 40.8452
128 2 1.25854 9.30476 39.346
129 2 7.32537 15.1876 38.4372
130 2 2.95583 5.97867 41.1257
131 2 1.733 12.1803 38.6313
132 2 9.65701 11.2361 39.4597
133 1 7.08679 10.97 42.106
134 1 0.411893 12.6634 40.8388
135 1 1.69907 8.61979 42.3697
136 1 5.68858 14.8405 40.5605
137 2 5.14382 12.4349 41.1957
138 2 14.5959 8.58411 46.9792
139 2 2.90995 14.4602 40.9943
140 2 6.14944 5.85928 43.9222
141 2 10.7861 15.4499 41.0204
142 2 7.94488 9.58799 44.6942
143 2 6.7186 10.0484 39.2482
144 2 31.6775 10.1361 42.2262
145 1 10.3637 11.0465 44.6292
146 1 3.59196 12.7463 43.5241
147 1 5.24419 8.76369 44.9971
148 1 8.81703 14.9545 43.5186
149 2 30.5046 12.7587 44.0164
150 2 11.0629 9.42247 47.0808
151 2 8.57969 12.4605 44.2242
152 2 3.99949 12.8875 46.046
153 2 4.54326 16.6319 42.0973
154 2 22.7528 5.03489 47.208
155 2 0.0293421 16.5535 44.157
156 2 2.52698 10.3016 45.0278
157 1 3.0934 11.1765 47.6128
158 1 6.88114 12.5266 46.384
159 1 8.4291 8.72414 47.3014
160 1 1.00498 14.8663 46.0452
161 2 2.76074 15.1953 44.3496
162 2 32.4749 9.3063 47.3497
163 2 17.663 15.3137 45.8045
164 2 4.834 20.4773 41.223
165 2 15.8411 11.157 44.9916
166 2 1.26896 12.4681 46.5955
167 2 8.36263 4.53594 44.0613
168 1 5.07362 18.8201 31.4383
169 1 8.95332 20.5928 30
170 1 10.4733 16.6515 31.4383
171 1 3.55366 22.7614 30
172 2 6.08428 21.1294 30.2063
173 2 7.94266 18.2835 31.232
174 2 0.684626 22.2248 30.2063
175 2 2.543 17.1881 31.232
176 2 8.45027 23.0832 30.6132
177 2 5.57667 16.3297 30.8251
178 2 3.05061 20.271 30.6132
179 2 0.177018 19.1419 30.8251
180 1 8.30125 18.8201 34.086
181 1 1.38163 20.5928 32.6477
182 1 2.90159 16.6515 34.086
183 1 6.78129 22.7614 32.6477
184 2 9.31191 21.1294 32.854
185 2 0.370971 18.2835 33.8797
186 2 3.91225 22.2248 32.854
187 2 5.77063 17.1881 33.8797
188 2 0.878579 23.0832 33.261
189 2 8.8043 16.3297 33.4728
190 2 6.27824 20.271 33.261
191 2 3.40464 19.1419 33.4728
192 1 0.851886 18.7107 36.7597
193 1 4.6845 20.7873 35.1836
194 1 5.84804 16.711 36.6953
195 1 10.043 22.6083 35.2291
196 2 1.88871 21.5629 35.3159
197 2 3.72745 18.063 36.3644
198 2 6.6079 22.1519 35.3813
199 2 8.7948 17.8215 37.0161
200 2 3.82121 23.2972 35.9947
201 2 1.08577 16.339 36.0536
202 2 9.42445 20.2289 36.1167
203 2 6.59602 18.8743 35.9442
204 1 4.12514 18.7629 39.3237
205 1 7.75526 20.5728 38.0156
206 1 9.12554 16.8303 39.5376
207 1 2.38476 22.7739 38.015
208 2 4.83982 21.0105 38.2126
209 2 6.56129 18.0986 39.1042
210 2 9.89258 22.0442 38.2848
211 2 1.65162 17.2793 38.9122
212 2 7.18886 23.0299 38.404
213 2 4.31391 16.1708 38.8278
214 2 2.17824 20.335 38.7812
215 2 9.55194 19.2526 39.1633
216 1 6.98339 18.8524 42.2913
217 1 0.0767814 20.7243 41.0217
218 1 1.74065 16.532 42.0956
219 1 5.82316 22.6938 40.4824
220 2 16.6043 18.5948 49.0895
221 2 15.5185 17.3563 41.992
222 2 30.3471 19.1259 46.9116
223 2 30.4883 22.8011 46.3417
224 2 2.89609 23.3339 44.1803
225 2 6.35905 15.0276 46.653
226 2 6.26083 22.846 46.8058
227 2 32.2124 15.0996 41.3516
228 1 10.3556 18.7785 44.7668
229 1 3.19272 20.9799 43.4369
230 1 4.92036 16.2935 45.0648
231 1 8.6969 22.6885 43.5874
232 2 4.53852 8.90465 42.1354
233 2 27.4898 18.6966 48.1254
234 2 8.57665 20.8218 41.256
235 2 3.28458 8.63964 47.8486
236 2 8.32935 18.6231 46.6262
237 2 19.9591 19.2054 47.0199
238 2 10.6286 17.2182 47.3397
239 2 2.83455 16.8686 46.5401
240 1 2.73155 19.0625 47.8224
241 1 6.21124 20.2984 46.2738
242 1 8.21389 16.5039 47.504
243 1 1.02377 22.8211 46.1542
244 2 5.42774 18.3327 47.4832
245 2 28.9045 1.71193 44.8743
246 2 0.769543 20.0346 47.12
247 2 20.1078 14.9039 46.2361
248 2 5.16259 3.21734 44.1067
249 2 28.3428 15.6091 46.1929
250 2 30.7319 14.6622 46.431
251 2 0.394699 21.632 43.8321
252 1 15.8729 3.05499 31.4383
253 1 19.7526 4.82759 30
254 1 21.2726 0.886302 31.4383
255 1 14.353 6.99628 30
256 2 16.8836 5.36421 30.2063
257 2 18.742 2.51837 31.232
258 2 11.4839 6.45966 30.2063
259 2 13.3423 1.42292 31.232
260 2 19.2496 7.31804 30.6132
261 2 16.376 0.564542 30.8251
262 2 13.8499 4.50583 30.6132
263 2 10.9763 3.37675 30.8251
264 1 19.1006 3.05499 34.086
265 1 12.1809 4.82759 32.6477
266 1 13.7009 0.886302 34.086
267 1 17.5806 6.99628 32.6477
268 2 20.1112 5.36421 32.854
269 2 11.1703 2.51837 33.8797
270 2 14.7116 6.45966 32.854
271 2 16.5699 1.42292 33.8797
272 2 11.6779 7.31804 33.261
273 2 19.6036 0.564542 33.4728
274 2 17.0775 4.50583 33.261
275 2 14.204 3.37675 33.4728
276 1 11.4745 3.2315 36.8346
277 1 15.4989 4.80739 35.1954
278 1 17.2743 1.04611 36.6972
279 1 20.8682 7.12307 35.2544
280 2 12.2096 5.24599 35.4932
281 2 13.8994 2.91007 36.6723
282 2 17.7701 6.56907 35.4503
283 2 19.9037 1.63026 36.9352
284 2 14.8205 7.22006 35.8967
285 2 11.9012 0.562603 36.2391
286 2 20.152 4.60031 35.9363
287 2 17.4957 3.44947 36.0319
288 1 14.6944 2.9621 39.4774
289 1 18.7605 5.1239 37.9867
290 1 20.2245 0.875414 39.4265
291 1 13.1582 6.9794 37.866
292 2 16.1162 5.53365 37.8521
293 2 17.443 2.48489 39.4154
294 2 21.2574 6.78855 38.0269
295 2 11.0118 16.1039 43.8069
296 2 18.0138 7.50799 38.749
297 2 12.7516 0.906349 39.6516
298 2 12.5873 4.37153 38.8644
299 2 20.5352 3.36326 39.2403
300 1 18.0144 3.35716 42.4372
301 1 11.0573 4.99945 40.9517
302 1 12.4686 0.680407 41.9277
303 1 16.5152 6.79832 40.6847
304 2 18.7218 5.3092 40.8561
305 2 27.0409 3.50093 44.4346
306 2 13.9444 6.7611 41.3002
307 2 13.654 22.5814 40.8673
308 2 21.697 8.79101 44.8168
309 2 18.3048 0.458563 41.9748
310 2 15.9017 4.58085 41.3142
311 2 11.3812 5.63049 43.5026
312 1 21.2039 3.28194 45.5071
313 1 14.404 4.92469 43.5132
314 1 15.872 0.937516 44.4629
315 1 19.9387 7.22782 43.659
316 2 11.3829 21.3174 43.3288
317 2 18.6139 1.70363 45.0474
318 2 12.1208 4.28357 46.9879
319 2 16.1356 3.46163 44.611
320 2 14.0831 7.24491 44.1641
321 2 2.81396 1.21567 46.4548
322 2 20.7647 10.5571 41.6924
323 2 19.0072 20.573 44.1228
324 1 14.0524 2.79408 47.2639
325 1 17.7455 4.96796 46.0515
326 1 19.0489 1.13001 47.8527
327 1 12.6441 7.05306 46.275
328 2 15.658 1.74301 41.6164
329 2 14.8338 20.9201 46.6504
330 2 16.6631 6.10241 43.6523
331 2 11.4987 0.916429 47.2787
332 2 9.77576 10.6406 42.1934
333 2 32.225 16.8757 47.1845
334 2 8.86786 11.2564 46.7926
335 2 13.1955 2.60784 45.0203
336 1 15.8729 10.9376 31.4383
337 1 19.7526 12.7102 30
338 1 21.2726 8.76888 31.4383
339 1 14.353 14.8789 30
340 2 16.8836 13.2468 30.2063
341 2 18.742 10.401 31.232
342 2 11.4839 14.3422 30.2063
343 2 13.3423 9.3055 31.232
344 2 19.2496 15.2006 30.6132
345 2 16.376 8.44712 30.8251
346 2 13.8499 12.3884 30.6132
347 2 10.9763 11.2593 30.8251
348 1 19.1006 10.9376 34.086
349 1 12.1809 12.7102 32.6477
350 1 13.7009 8.76888 34.086
351 1 17.5806 14.8789 32.6477
352 2 20.1112 13.2468 32.854
353 2 11.1703 10.401 33.8797
354 2 14.7116 14.3422 32.854
355 2 16.5699 9.3055 33.8797
356 2 11.6779 15.2006 33.261
357 2 19.6036 8.44712 33.4728
358 2 17.0775 12.3884 33.261
359 2 14.204 11.2593 33.4728
360 1 11.5321 10.9379 36.9465
361 1 15.4868 12.7116 35.342
362 1 16.9008 8.92442 36.8066
363 1 20.708 14.6702 35.1522
364 2 12.678 13.1542 35.7536
365 2 14.2794 10.6224 36.7286
366 2 17.6843 14.1684 35.4172
367 2 19.7981 9.16675 36.4387
368 2 14.6252 15.0796 36.0379
369 2 12.3028 8.29952 36.1813
370 2 19.8329 12.1534 36.2744
371 2 17.4878 11.1596 35.9053
372 1 14.5179 10.8214 39.3702
373 1 18.3943 12.5344 38.2908
374 1 20.0098 8.9836 39.4729
375 1 13.2821 14.7547 38.1856
376 2 15.4084 12.9655 37.9598
377 2 15.2676 9.21779 42.0506
378 2 21.3673 14.5056 38.5662
379 2 11.9401 9.39103 38.8436
380 2 18.8714 12.9094 40.9102
381 2 15.1987 8.22718 39.0566
382 2 10.278 15.0231 38.0632
383 2 18.5062 8.62399 41.6273
384 1 17.9876 10.9462 42.3437
385 1 10.9671 12.9837 40.9105
386 1 12.7147 8.54807 42.3607
387 1 16.4591 14.8032 40.9485
388 2 15.6962 12.5816 41.1975
389 2 17.978 10.3137 39.5938
390 2 12.5013 12.5666 38.8316
391 2 22.2634 5.69371 43.6863
392 2 20.7323 11.2195 38.7297
393 2 17.7785 7.19396 46.1825
394 2 12.9243 10.9396 41.3662
395 2 13.659 9.74393 45.0669
396 1 21.3299 11.3639 45.0686
397 1 14.1627 12.4106 43.5329
398 1 16.1199 8.58011 44.6819
399 1 19.6304 15.2218 43.6362
400 2 11.4073 13.4653 43.3467
401 2 9.45115 14.4076 46.3636
402 2 23.3749 9.53071 38.9414
403 2 22.166 9.67178 47.5467
404 2 22.491 20.2945 47.3
405 2 10.5641 23.1964 41.2213
406 2 10.2939 18.2782 41.7552
407 2 5.56999 10.3706 47.3218
408 1 13.6674 10.5426 47.3143
409 1 17.7728 12.7762 45.9417
410 1 19.5826 8.71841 47.4334
411 1 12.0982 14.9212 46.0799
412 2 18.7306 9.55023 44.7913
413 2 16.3034 19.4033 44.6541
414 2 20.3154 6.59063 46.2754
415 2 18.953 17.7527 44.6501
416 2 17.0548 13.7274 43.6828
417 2 7.40071 8.10593 41.9028
418 2 12.5754 20.1877 45.7127
419 1 15.8729 18.8201 31.4383
420 1 19.7526 20.5928 30
421 1 21.2726 16.6515 31.4383
422 1 14.353 22.7614 30
423 2 16.8836 21.1294 30.2063
424 2 18.742 18.2835 31.232
425 2 11.4839 22.2248 30.2063
426 2 13.3423 17.1881 31.232
427 2 19.2496 23.0832 30.6132
428 2 16.376 16.3297 30.8251
429 2 13.8499 20.271 30.6132
430 2 10.9763 19.1419 30.8251
431 1 19.1006 18.8201 34.086
432 1 12.1809 20.5928 32.6477
433 1 13.7009 16.6515 34.086
434 1 17.5806 22.7614 32.6477
435 2 20.1112 21.1294 32.854
436 2 11.1703 18.2835 33.8797
437 2 14.7116 22.2248 32.854
438 2 16.5699 17.1881 33.8797
439 2 11.6779 23.0832 33.261
440 2 19.6036 16.3297 33.4728
441 2 17.0775 20.271 33.261
442 2 14.204 19.1419 33.4728
443 1 11.3813 18.6682 36.9936
444 1 15.3228 20.6096 35.2441
445 1 16.6564 16.6295 36.7247
446 1 20.9667 22.6666 35.428
447 2 12.2194 20.7735 35.3108
448 2 14.4121 18.3051 36.5889
449 2 18.1146 22.6471 35.4072
450 2 19.9111 17.3786 36.8029
451 2 15.1337 23.1934 35.6619
452 2 12.0039 16.4764 35.9267
453 2 20.6256 20.2522 35.9067
454 2 17.2622 19.1485 35.9719
455 1 14.9618 18.6742 39.4607
456 1 18.7145 20.5551 37.9104
457 1 19.9978 16.4452 39.6012
458 1 13.3427 22.7635 37.9735
459 2 15.9619 21.098 38.0525
460 2 17.8793 15.0439 38.8418
461 2 21.3159 22.2105 38.0245
462 2 12.3123 17.1159 39.4894
463 2 18.2359 23.0933 38.7756
464 2 17.9192 18.0822 38.574
465 2 12.589 20.3457 38.6999
466 2 20.7286 19.3485 39.1433
467 1 17.8382 19.168 42.5363
468 1 11.2535 20.4288 40.8929
469 1 12.7639 16.4736 42.093
470 1 16.6336 23.013 40.5597
471 2 22.0121 17.3176 47.7263
472 2 12.1473 12.1836 45.8885
473 2 15.5355 0.609183 38.3661
474 2 18.4123 16.0253 41.6466
475 2 21.1031 23.2913 41.2822
476 2 7.53622 17.2707 44.6182
477 2 15.9327 20.6399 41.4752
478 2 13.2541 18.9787 41.4524
479 1 21.3204 19.0883 45.0667
480 1 14.2487 20.7029 43.6866
481 1 15.8344 16.598 44.8442
482 1 19.3675 22.9773 43.6913
483 2 5.89398 22.004 43.7529
484 2 20.0215 22.5337 46.5993
485 2 19.1082 21.0327 40.8278
486 2 14.4532 0.455501 46.6009
487 2 15.8511 16.4921 48.2218
488 2 8.25273 20.1365 44.671
489 2 21.082 18.4054 41.9379
490 2 15.4694 16.1489 38.9832
491 1 13.8468 18.885 47.5605
492 1 17.642 20.8125 46.4455
493 1 18.9272 16.9211 47.4428
494 1 12.4383 22.7968 45.7949
495 2 13.9428 23.2497 44.115
496 2 4.98853 19.3245 43.9997
497 2 8.08543 13.0443 40.9151
498 2 1.87958 19.2491 41.6963
499 2 19.609 3.4016 47.301
500 2 21.5896 0.550166 45.0231
501 2 13.1754 17.3169 45.4467
502 2 27.0999 19.5294 44.2491
503 1 26.6722 3.05499 31.4383
504 1 30.5519 4.82759 30
505 1 32.0719 0.886302 31.4383
506 1 25.1523 6.99628 30
507 2 27.6829 5.36421 30.2063
508 2 29.5413 2.51837 31.232
509 2 22.2833 6.45966 30.2063
510 2 24.1416 1.42292 31.232
511 2 30.0489 7.31804 30.6132
512 2 27.1753 0.564542 30.8251
513 2 24.6492 4.50583 30.6132
514 2 21.7756 3.37675 30.8251
515 1 29.8999 3.05499 34.086
516 1 22.9803 4.82759 32.6477
517 1 24.5002 0.886302 34.086
518 1 28.3799 6.99628 32.6477
519 2 30.9105 5.36421 32.854
520 2 21.9696 2.51837 33.8797
521 2 25.5109 6.45966 32.854
522 2 27.3693 1.42292 33.8797
523 2 22.4772 7.31804 33.261
524 2 30.4029 0.564542 33.4728
525 2 27.8769 4.50583 33.261
526 2 25.0033 3.37675 33.4728
527 1 22.0869 3.05193 36.7701
528 1 25.9675 4.61051 35.3997
529 1 27.7775 1.06992 36.7197
530 1 31.8242 7.11953 35.3743
531 2 23.1783 5.69752 35.2913
532 2 25.2081 2.36035 36.8482
533 2 29.3534 6.76321 36.3023
534 2 30.3009 1.46425 36.5282
535 2 25.7456 7.23811 35.871
536 2 22.3128 0.795692 36.231
537 2 31.2166 4.54897 36.0441
538 2 28.288 3.76406 35.8508
539 1 25.5741 3.15965 39.5708
540 1 29.3355 4.9195 37.9942
541 1 30.557 0.903204 39.3681
542 1 24.2403 6.90387 38.1184
543 2 26.3166 5.24815 37.8252
544 2 31.3121 3.46409 38.9113
545 2 31.8755 6.31234 38.6856
546 2 22.673 1.34512 39.2044
547 2 28.6859 7.44843 38.898
548 2 25.5899 0.882475 39.1598
549 2 23.7325 4.60012 38.4251
550 2 30.0333 4.90975 44.2552
551 1 28.4145 3.28589 42.2018
552 1 21.6762 4.79926 41.0413
553 1 23.2246 0.800995 42.529
554 1 27.1819 7.0168 40.9548
555 2 26.6615 4.6666 41.4071
556 2 29.8961 10.0684 44.9585
557 2 24.6653 5.96843 40.7288
558 2 2.28949 3.26206 44.8667
559 2 0.255367 8.58552 44.5144
560 2 24.3195 7.15252 44.0244
561 2 23.7077 11.3473 41.758
562 2 23.741 3.45308 41.5552
563 1 31.8267 3.43241 45.0455
564 1 25.1256 4.95319 43.4333
565 1 26.3067 0.958475 45.4746
566 1 30.784 7.29487 43.7985
567 2 5.17648 2.32767 47.4218
568 2 24.5436 23.1372 44.3827
569 2 28.359 2.60425 39.1207
570 2 20.9835 2.37558 42.4482
571 2 27.3008 11.4324 44.1469
572 2 21.7563 16.4505 43.8856
573 2 3.06272 7.61644 44.4279
574 2 21.7043 1.35422 47.9902
575 1 24.3309 3.27226 47.9927
576 1 28.1967 5.06333 46.0885
577 1 29.7251 1.37144 47.6591
578 1 23.2443 7.37757 46.2567
579 2 25.1897 5.82047 46.5327
580 2 24.1069 2.89711 45.3266
581 2 25.8385 13.1418 46.557
582 2 16.6684 22.2388 43.9581
583 2 28.1236 7.45175 46.4507
584 2 9.86957 22.363 46.1376
585 2 19.4319 4.72714 44.0827
586 2 32.2687 0.786299 44.5463
587 1 26.6722 10.9376 31.4383
588 1 30.5519 12.7102 30
589 1 32.0719 8.76888 31.4383
590 1 25.1523 14.8789 30
591 2 27.6829 13.2468 30.2063
592 2 29.5413 10.401 31.232
593 2 22.2833 14.3422 30.2063
594 2 24.1416 9.3055 31.232
595 2 30.0489 15.2006 30.6132
596 2 27.1753 8.44712 30.8251
597 2 24.6492 12.3884 30.6132
598 2 21.7756 11.2593 30.8251
599 1 29.8999 10.9376 34.086
600 1 22.9803 12.7102 32.6477
601 1 24.5002 8.76888 34.086
602 1 28.3799 14.8789 32.6477
603 2 30.9105 13.2468 32.854
604 2 21.9696 10.401 33.8797
605 2 25.5109 14.3422 32.854
606 2 27.3693 9.3055 33.8797
607 2 22.4772 15.2006 33.261
608 2 30.4029 8.44712 33.4728
609 2 27.8769 12.3884 33.261
610 2 25.0033 11.2593 33.4728
611 1 22.2946 10.8728 36.7457
612 1 26.3525 12.5037 35.3837
613 1 27.8709 8.80711 36.9311
614 1 31.6094 14.7756 35.3603
615 2 23.6137 12.7194 35.2803
616 2 25.5933 10.3539 36.5347
617 2 28.8089 14.0655 35.4514
618 2 30.8492 9.31343 36.6117
619 2 25.9638 15.2137 35.8914
620 2 22.8451 8.60143 35.9048
621 2 30.8725 12.3866 35.9781
622 2 28.4268 11.0687 36.3454
623 1 25.4904 10.8518 39.603
624 1 29.637 12.6848 38.2873
625 1 30.7479 8.49272 39.8625
626 1 24.108 15.035 37.9963
627 2 26.7043 12.8925 38.496
628 2 28.7812 10.5813 39.7775
629 2 32.0101 14.2029 38.2485
630 2 25.8151 8.39828 39.2526
631 2 28.754 15.251 38.7488
632 2 26.0239 9.07063 42.304
633 2 23.3718 12.4257 38.6482
634 2 31.772 10.9949 39.0468
635 1 28.8938 11.1578 42.3048
636 1 21.6923 12.8449 40.6701
637 1 23.4879 8.90094 42.3135
638 1 27.1004 14.9614 40.5514
639 2 0.752026 13.0995 43.4997
640 2 27.6214 6.12049 43.6371
641 2 21.3763 15.0193 41.6329
642 2 26.4688 12.3331 41.485
643 2 2.24382 11.0803 41.7449
644 2 0.592027 5.52236 43.5855
645 2 27.4293 14.3877 43.2124
646 2 21.2669 7.35987 41.6279
647 1 32.2688 11.0691 45.0157
648 1 25.029 12.9008 43.5836
649 1 26.6072 8.94466 44.945
650 1 30.5901 15.1701 43.3541
651 2 19.8029 11.0728 47.1003
652 2 14.7201 12.906 46.7889
653 2 29.0613 8.46843 41.8857
654 2 30.7085 6.84212 46.2689
655 2 26.1482 16.4426 38.8112
656 2 14.0155 15.0765 44.0242
657 2 30.127 13.3331 41.0495
658 2 24.4725 15.3021 43.9101
659 1 24.7769 11.1183 47.5489
660 1 28.935 12.7906 46.111
661 1 29.9237 8.89988 47.3782
662 1 22.9501 15.1175 46.242
663 2 23.8873 10.3265 44.9198
664 2 25.465 8.75796 47.0526
665 2 27.3205 10.3981 47.0239
666 2 22.7223 12.5734 47.0899
667 2 29.5335 5.29036 40.8585
668 2 7.51029 16.5381 41.6889
669 2 26.348 17.3493 42.0356
670 2 30.6503 11.2257 47.4582
671 1 26.6722 18.8201 31.4383
672 1 30.5519 20.5928 30
673 1 32.0719 16.6515 31.4383
674 1 25.1523 22.7614 30
675 2 27.6829 21.1294 30.2063
676 2 29.5413 18.2835 31.232
677 2 22.2833 22.2248 30.2063
678 2 24.1416 17.1881 31.232
679 2 30.0489 23.0832 30.6132
680 2 27.1753 16.3297 30.8251
681 2 24.6492 20.271 30.6132
682 2 21.7756 19.1419 30.8251
683 1 29.8999 18.8201 34.086
684 1 22.9803 20.5928 32.6477
685 1 24.5002 16.6515 34.086
686 1 28.3799 22.7614 32.6477
687 2 30.9105 21.1294 32.854
688 2 21.9696 18.2835 33.8797
689 2 25.5109 22.2248 32.854
690 2 27.3693 17.1881 33.8797
691 2 22.4772 23.0832 33.261
692 2 30.4029 16.3297 33.4728
693 2 27.8769 20.271 33.261
694 2 25.0033 19.1419 33.4728
695 1 22.413 18.7256 36.8432
696 1 26.1295 20.8064 35.2939
697 1 27.8499 16.6144 36.7358
698 1 31.6256 22.932 35.5009
699 2 23.6672 22.0718 35.4855
700 2 25.198 18.0943 36.6058
701 2 28.2988 22.5972 35.2815
702 2 30.8808 17.0574 36.7976
703 2 25.7125 23.0996 36.2983
704 2 22.9835 16.3164 35.8993
705 2 31.2898 20.1273 35.9873
706 2 28.309 19.1159 36.0913
707 1 25.4312 18.9046 39.521
708 1 29.5061 20.7233 37.9985
709 1 31.0671 16.7498 39.511
710 1 23.7907 22.9423 38.1178
711 2 26.9348 21.0076 38.6348
712 2 28.7474 18.6361 39.4569
713 2 31.5332 22.5071 38.2109
714 2 24.09 14.4492 40.7476
715 2 28.5269 23.0578 38.7973
716 2 22.735 17.1989 38.815
717 2 23.4991 20.4075 38.7588
718 2 31.8198 19.2405 39.0213
719 1 28.7033 18.9596 42.217
720 1 21.7278 20.865 40.7166
721 1 23.4433 17.0083 42.2681
722 1 26.845 22.7183 40.6245
723 2 29.458 21.3144 40.7458
724 2 31.4998 18.1614 41.6552
725 2 24.1991 22.5026 41.4197
726 2 23.7912 18.7349 44.6301
727 2 31.7602 23.2435 41.3894
728 2 29.4092 16.241 41.338
729 2 26.5136 20.4444 41.754
730 2 23.928 19.8839 41.1263
731 1 31.8525 18.9158 44.9702
732 1 24.7527 20.9153 43.6866
733 1 26.5897 16.6564 44.7024
734 1 29.9548 23.3646 43.4215
735 2 22.1398 21.78 43.6226
736 2 0.172715 1.73064 46.9739
737 2 31.2368 2.4074 42.5927
738 2 22.537 13.4526 44.1456
739 2 25.9752 1.64174 41.9631
740 2 26.949 3.07177 47.6891
741 2 28.7656 0.631619 41.2415
742 2 25.1781 21.2412 46.1217
743 1 24.5544 18.8559 47.3995
744 1 28.395 20.9948 46.2001
745 1 29.5404 16.9729 47.8355
746 1 22.6649 22.6096 46.5891
747 2 29.506 17.5267 44.3184
748 2 30.0195 20.599 43.876
749 2 4.1415 5.26351 46.7007
750 2 24.9046 16.6626 46.4368
751 2 24.7879 0.504439 47.3905
752 2 19.357 12.59 44.0359
753 2 27.4772 22.3221 44.2315
754 2 16.989 2.61 48.1545
755 3 16.5785 18.6033 48.0138
756 3 16.0633 17.2617 47.5288
