# LAMMPS data file
756 atoms
2 atom types
0.0 32.39794198551478 xlo xhi
0.0 23.64774 ylo yhi
0.0 77.32469402918946 zlo zhi

Atoms # atomic

1 1 5.07362 3.05499 31.4383
2 1 8.95332 4.82759 30
3 1 10.4733 0.886302 31.4383
4 1 3.55366 6.99628 30
5 2 6.08428 5.36421 30.2063
6 2 7.94266 2.51837 31.232
7 2 0.684626 6.45966 30.2063
8 2 2.543 1.42292 31.232
9 2 8.45027 7.31804 30.6132
10 2 5.57668 0.564542 30.8251
11 2 3.05061 4.50583 30.6132
12 2 0.177018 3.37675 30.8251
13 1 8.30125 3.05499 34.086
14 1 1.38163 4.82759 32.6477
15 1 2.90159 0.886302 34.086
16 1 6.78129 6.99628 32.6477
17 2 9.31191 5.36421 32.854
18 2 0.370971 2.51837 33.8797
19 2 3.91225 6.45966 32.854
20 2 5.77063 1.42292 33.8797
21 2 0.878579 7.31804 33.261
22 2 8.8043 0.564542 33.4728
23 2 6.27824 4.50583 33.261
24 2 3.40464 3.37675 33.4728
25 1 0.778368 3.36254 36.7879
26 1 4.46465 4.92801 35.3547
27 1 6.29278 0.755546 36.7286
28 1 10.077 7.04149 35.5515
29 2 1.73085 5.44648 35.2365
30 2 3.48827 2.74392 36.3033
31 2 6.72402 6.59282 35.517
32 2 8.33756 12.4806 44.3179
33 2 3.89826 7.58062 35.9888
34 2 1.18012 0.803147 36.0124
35 2 9.51651 4.67058 36.056
36 2 6.88072 3.44611 36.2248
37 1 4.41757 3.09544 39.5876
38 1 7.7502 4.9336 38.1246
39 1 9.41939 0.815064 39.8318
40 1 2.41224 7.5227 38.3241
41 2 10.2513 0.853308 45.1748
42 2 5.26836 5.74203 37.7185
43 2 8.11825 5.30275 41.193
44 2 2.61705 3.48813 41.5201
45 2 11.9949 8.21533 36.5394
46 2 3.12536 21.9237 40.6507
47 2 32.1348 6.13684 38.2312
48 2 12.3539 5.89049 35.0953
49 1 7.19294 2.98913 42.5311
50 1 0.286009 4.7958 40.5904
51 1 1.67982 0.929513 42.081
52 1 5.66873 7.23386 40.9137
53 2 25.967 21.0821 46.9758
54 2 6.90992 10.249 39.7148
55 2 2.17437 4.76306 39.0335
56 2 9.53024 3.39138 38.6724
57 2 16.5861 18.3676 47.2396
58 2 31.5745 1.9365 41.7985
59 2 2.96325 7.04928 41.1853
60 2 22.8355 1.63673 39.563
61 1 10.2584 3.32957 44.9248
62 1 3.58223 4.87876 43.366
63 1 4.751 0.91014 44.7368
64 1 8.90008 6.99432 43.4635
65 2 12.3514 1.80357 38.8882
66 2 3.75724 5.34698 46.0605
67 2 24.0026 21.8714 48.6139
68 2 1.79491 20.3494 38.6446
69 2 30.9653 18.9091 47.0556
70 2 15.2411 3.58848 46.5718
71 2 21.8831 16.4736 44.4034
72 2 9.22218 6.1686 46.2199
73 1 3.01787 3.33653 47.3758
74 1 6.7693 4.82 46.2317
75 1 8.39604 0.92352 46.9448
76 1 1.38793 7.23441 46.2683
77 2 27.2914 6.57471 43.6926
78 2 10.9743 1.15983 47.5878
79 2 13.5774 23.2408 44.6213
80 2 29.4649 9.56491 45.2506
81 2 8.70859 3.37903 46.7462
82 2 1.22264 13.1833 47.4349
83 2 26.5745 21.5113 38.2256
84 2 0.7877 21.4948 43.8768
85 1 5.07362 10.9376 31.4383
86 1 8.95332 12.7102 30
87 1 10.4733 8.76888 31.4383
88 1 3.55366 14.8789 30
89 2 6.08428 13.2468 30.2063
90 2 7.94266 10.401 31.232
91 2 0.684626 14.3422 30.2063
92 2 2.543 9.3055 31.232
93 2 8.45027 15.2006 30.6132
94 2 5.57668 8.44712 30.8251
95 2 3.05061 12.3884 30.6132
96 2 0.177018 11.2593 30.8251
97 1 8.30125 10.9376 34.086
98 1 1.38163 12.7102 32.6477
99 1 2.90159 8.76888 34.086
100 1 6.78129 14.8789 32.6477
101 2 9.31191 13.2468 32.854
102 2 0.370971 10.401 33.8797
103 2 3.91225 14.3422 32.854
104 2 5.77063 9.3055 33.8797
105 2 0.878579 15.2006 33.261
106 2 8.8043 8.44712 33.4728
107 2 6.27824 12.3884 33.261
108 2 3.40464 11.2593 33.4728
109 1 0.598986 10.9427 36.6399
110 1 4.46718 12.7558 35.3119
111 1 6.02288 8.60604 36.9565
112 1 9.86194 14.8316 35.2843
113 2 1.3448 13.5063 35.643
114 2 28.987 16.7345 41.6252
115 2 7.48297 14.2504 35.8095
116 2 8.54806 9.39834 36.596
117 2 3.8907 15.1956 35.7554
118 2 1.64654 8.71486 36.1036
119 2 9.79874 11.8487 36.022
120 2 6.33878 11.4784 36.4092
121 1 3.84963 11.5104 39.1012
122 1 7.8958 12.4125 37.8175
123 1 9.35397 8.79158 39.6625
124 1 2.17753 15.0729 37.8991
125 2 3.33211 10.5604 36.6685
126 2 3.56898 16.5463 47.36
127 2 10.2733 14.0835 38.5579
128 2 0.917161 9.48138 38.7832
129 2 6.94474 14.6447 39.1093
130 2 11.1405 8.77002 44.629
131 2 7.73169 16.2811 41.8594
132 2 4.40341 13.6192 37.5441
133 1 7.12248 11.0354 42.2306
134 1 32.2979 12.6153 40.5591
135 1 1.50631 8.80758 42.2549
136 1 5.46737 15.2267 40.8928
137 2 14.5146 16.0596 46.9488
138 2 7.66108 8.81414 44.9183
139 2 4.26491 16.4845 38.6114
140 2 25.1953 14.9968 44.7059
141 2 13.9443 18.3247 44.9173
142 2 1.40196 12.6441 38.205
143 2 31.2111 18.9407 38.8768
144 2 22.1892 2.29012 47.5559
145 1 10.4174 11.4553 45.383
146 1 3.52762 12.6546 43.1991
147 1 4.94593 8.71982 45.377
148 1 8.87698 15.1035 43.5408
149 2 11.7318 17.2713 47.595
150 2 24.4081 22.6996 41.0755
151 2 2.50741 17.8588 44.9984
152 2 7.7918 8.44037 41.9812
153 2 5.01754 19.09 48.3309
154 2 28.8331 2.39503 39.437
155 2 21.1184 7.16265 40.9962
156 2 13.65 6.96542 44.1552
157 1 2.91882 11.177 47.6175
158 1 6.67717 12.7824 45.8587
159 1 8.36965 8.75162 47.5448
160 1 1.88448 15.0591 45.9262
161 2 5.80565 6.5662 43.9333
162 2 16.3201 4.45724 41.0279
163 2 32.1831 15.3701 41.1406
164 2 27.7145 14.0678 43.0012
165 2 14.6469 13.2662 46.3353
166 2 16.4058 3.39363 44.0609
167 2 21.9831 17.5939 47.8793
168 2 1.82443 19.1655 41.7133
169 1 5.07362 18.8201 31.4383
170 1 8.95332 20.5928 30
171 1 10.4733 16.6515 31.4383
172 1 3.55366 22.7614 30
173 2 6.08428 21.1294 30.2063
174 2 7.94266 18.2835 31.232
175 2 0.684626 22.2248 30.2063
176 2 2.543 17.1881 31.232
177 2 8.45027 23.0832 30.6132
178 2 5.57668 16.3297 30.8251
179 2 3.05061 20.271 30.6132
180 2 0.177018 19.1419 30.8251
181 1 8.30125 18.8201 34.086
182 1 1.38163 20.5928 32.6477
183 1 2.90159 16.6515 34.086
184 1 6.78129 22.7614 32.6477
185 2 9.31191 21.1294 32.854
186 2 0.370971 18.2835 33.8797
187 2 3.91225 22.2248 32.854
188 2 5.77063 17.1881 33.8797
189 2 0.878579 23.0832 33.261
190 2 8.8043 16.3297 33.4728
191 2 6.27824 20.271 33.261
192 2 3.40464 19.1419 33.4728
193 1 0.413879 18.944 36.6291
194 1 4.85002 20.4995 35.4206
195 1 5.99213 16.2689 36.7489
196 1 9.85157 22.7952 35.154
197 2 1.1087 20.9155 35.4007
198 2 3.9959 18.3795 36.324
199 2 7.16748 21.9594 35.3102
200 2 9.00676 16.8277 36.9597
201 2 4.02757 23.1739 36.05
202 2 1.01952 16.5364 35.8779
203 2 9.06021 20.3293 36.0666
204 2 6.51305 18.556 36.9398
205 1 3.90733 18.9912 39.4918
206 1 7.98409 20.5646 38.565
207 1 9.14782 16.4368 39.7411
208 1 2.6782 22.9993 37.9825
209 2 5.47927 21.391 38.2144
210 2 8.42639 21.211 41.2712
211 2 13.8615 0.267982 47.681
212 2 1.13323 16.9642 38.8255
213 2 8.81166 1.16603 36.6289
214 2 22.0187 5.29429 43.2705
215 2 7.5463 23.2122 38.8501
216 2 6.518 17.9173 40.0297
217 1 7.20215 18.6869 42.5114
218 1 0.153039 20.5395 40.6591
219 1 1.72231 16.5495 42.1836
220 1 5.6132 22.6302 40.6574
221 2 11.8608 20.2305 47.3362
222 2 30.6975 22.6617 45.8359
223 2 4.8321 0.415501 38.7049
224 2 3.10445 0.951695 46.9834
225 2 2.83863 22.9643 43.6955
226 2 27.3802 11.1628 44.3572
227 2 -0.0579304 8.60012 44.2874
228 2 10.5538 6.9469 41.1985
229 1 10.4627 18.6424 45.6199
230 1 3.28781 20.4655 43.333
231 1 5.12361 16.8166 44.9421
232 1 8.8564 22.6758 43.8551
233 2 12.7844 2.19502 45.235
234 2 18.3872 23.1384 46.0941
235 2 18.4463 1.4368 44.0759
236 2 14.8814 21.4344 46.9849
237 2 5.7134 22.0204 43.8606
238 2 30.2171 4.84745 44.0755
239 2 11.9149 0.817638 36.1416
240 2 26.741 4.50162 41.4667
241 1 2.81833 18.8687 47.7644
242 1 6.40441 20.6517 46.4179
243 1 11.9327 15.0458 46.0728
244 1 1.38557 22.6821 45.9933
245 2 13.2653 3.11878 41.5485
246 2 28.9913 1.99466 45.213
247 2 10.3194 22.1521 38.7061
248 2 4.56103 17.5393 42.3779
249 2 18.3959 7.72983 45.1096
250 2 5.43106 20.2817 41.3951
251 2 24.3804 7.16529 44.4784
252 2 28.91 8.53966 41.4767
253 1 15.8729 3.05499 31.4383
254 1 19.7526 4.82759 30
255 1 21.2726 0.886302 31.4383
256 1 14.353 6.99628 30
257 2 16.8836 5.36421 30.2063
258 2 18.742 2.51837 31.232
259 2 11.4839 6.45966 30.2063
260 2 13.3423 1.42292 31.232
261 2 19.2496 7.31804 30.6132
262 2 16.376 0.564542 30.8251
263 2 13.8499 4.50583 30.6132
264 2 10.9763 3.37675 30.8251
265 1 19.1006 3.05499 34.086
266 1 12.1809 4.82759 32.6477
267 1 13.7009 0.886302 34.086
268 1 17.5806 6.99628 32.6477
269 2 20.1112 5.36421 32.854
270 2 11.1703 2.51837 33.8797
271 2 14.7116 6.45966 32.854
272 2 16.5699 1.42292 33.8797
273 2 11.6779 7.31804 33.261
274 2 19.6036 0.564542 33.4728
275 2 17.0775 4.50583 33.261
276 2 14.204 3.37675 33.4728
277 1 11.5551 3.18807 36.6797
278 1 15.6465 4.89478 35.5384
279 1 17.0492 0.616965 36.8948
280 1 20.5975 6.96797 35.5343
281 2 15.2825 7.47937 35.577
282 2 14.5827 1.94508 36.9484
283 2 18.004 6.71775 35.6186
284 2 20.1348 1.68456 36.3899
285 2 15.8306 5.17312 38.1455
286 2 13.2889 20.078 38.6043
287 2 19.9801 4.20739 35.9567
288 2 18.5328 0.126601 41.4041
289 1 14.7346 3.04876 39.5802
290 1 18.3632 4.33836 37.9942
291 1 20.3369 0.690535 39.4439
292 1 13.3629 6.57166 38.1212
293 2 17.6385 2.92558 36.1476
294 2 24.3252 11.0602 41.4724
295 2 18.8531 22.6882 38.308
296 2 15.2944 0.43916 39.1558
297 2 21.0547 6.77275 38.0928
298 2 13.4769 21.5277 41.5041
299 2 12.5144 4.30399 38.8798
300 2 22.9049 8.64852 39.3328
301 1 18.078 3.00196 42.2118
302 1 10.9641 4.69692 40.7484
303 1 12.6775 0.758632 42.8944
304 1 16.57 6.79872 41.0933
305 2 18.1023 6.68709 39.1941
306 2 16.1557 12.4585 49.3973
307 2 19.6303 16.2732 45.3167
308 2 17.658 18.0962 39.4382
309 2 4.80211 1.34902 41.8418
310 2 19.2656 19.6204 47.4975
311 2 14.1979 8.57792 46.937
312 2 7.91125 17.3776 45.0698
313 1 20.9835 3.15675 45.288
314 1 14.2271 4.67954 43.2373
315 1 15.8308 0.761884 45.3866
316 1 19.9046 6.86608 43.4399
317 2 16.444 7.51252 46.8877
318 2 5.43277 19.1539 44.575
319 2 27.7177 23.0189 46.7439
320 2 16.0016 20.4019 41.6886
321 2 26.5202 9.58454 41.634
322 2 28.2707 18.343 47.4891
323 2 24.5954 0.816715 48.5303
324 2 5.49579 10.8206 47.3246
325 1 13.183 2.69094 47.6851
326 1 17.1189 4.93004 45.7858
327 1 23.2108 23.208 46.6996
328 1 11.9607 7.33762 46.1734
329 2 15.5725 17.3455 42.1134
330 2 24.6528 5.85801 49.7751
331 2 29.88 12.6145 44.7832
332 2 15.5459 0.976746 42.52
333 2 20.5179 2.73345 41.7704
334 2 13.7814 5.64519 40.9134
335 2 17.147 18.6133 44.3472
336 2 23.0538 4.77387 46.4071
337 1 15.8729 10.9376 31.4383
338 1 19.7526 12.7102 30
339 1 21.2726 8.76888 31.4383
340 1 14.353 14.8789 30
341 2 16.8836 13.2468 30.2063
342 2 18.742 10.401 31.232
343 2 11.4839 14.3422 30.2063
344 2 13.3423 9.3055 31.232
345 2 19.2496 15.2006 30.6132
346 2 16.376 8.44712 30.8251
347 2 13.8499 12.3884 30.6132
348 2 10.9763 11.2593 30.8251
349 1 19.1006 10.9376 34.086
350 1 12.1809 12.7102 32.6477
351 1 13.7009 8.76888 34.086
352 1 17.5806 14.8789 32.6477
353 2 20.1112 13.2468 32.854
354 2 11.1703 10.401 33.8797
355 2 14.7116 14.3422 32.854
356 2 16.5699 9.3055 33.8797
357 2 11.6779 15.2006 33.261
358 2 19.6036 8.44712 33.4728
359 2 17.0775 12.3884 33.261
360 2 14.204 11.2593 33.4728
361 1 11.8909 10.8392 36.7797
362 1 15.347 12.522 35.4888
363 1 17.0086 8.61244 36.9669
364 1 21.0285 15.1747 35.5941
365 2 12.6885 12.7079 35.3106
366 2 14.801 10.0913 36.3782
367 2 17.6724 14.1996 35.5956
368 2 20.6905 11.2284 38.7053
369 2 14.7306 15.3897 35.7393
370 2 12.5157 9.28046 39.9426
371 2 20.4803 12.7913 36.0533
372 2 17.7356 11.418 36.081
373 1 14.7561 10.8867 39.671
374 1 18.7947 12.7198 37.9965
375 1 20.0219 8.85442 39.7318
376 1 13.2395 15.1318 38.2705
377 2 21.7144 14.8732 40.9941
378 2 23.0733 17.197 39.3717
379 2 23.64 12.2049 39.1093
380 2 10.0949 11.2726 38.7034
381 2 12.3888 4.43392 46.2073
382 2 10.943 9.11123 48.0144
383 2 12.9532 12.422 38.3515
384 2 18.9479 5.21692 40.4109
385 1 18.096 11.1846 42.3071
386 1 10.9676 12.4284 40.7976
387 1 12.5058 8.60478 42.4157
388 1 16.4422 15.4256 40.777
389 2 17.7716 10.6742 39.5665
390 2 19.3833 12.7613 40.6532
391 2 4.58238 10.0566 41.5831
392 2 15.7553 13.3204 38.0724
393 2 19.0752 21.1786 40.9011
394 2 2.27631 10.433 44.9553
395 2 15.822 12.6594 41.4863
396 2 31.8175 10.0744 41.9965
397 1 21.5861 10.7842 44.8958
398 1 14.2677 12.8482 43.55
399 1 15.9428 8.86871 44.7668
400 1 20.1508 14.6683 43.7209
401 2 21.4719 0.932436 44.7588
402 2 26.3526 17.5931 42.5579
403 2 25.7314 5.54355 47.3249
404 2 0.133633 16.0344 44.609
405 2 18.3088 8.31629 42.1149
406 2 24.3213 18.3458 45.4461
407 2 23.9566 6.31821 41.262
408 2 15.5321 16.294 38.725
409 1 14.0152 10.9411 47.8116
410 1 17.4769 12.5525 46.2737
411 1 18.8297 8.4432 47.3853
412 1 15.9048 15.47 49.0411
413 2 0.695845 16.7413 47.8843
414 2 9.61889 13.9041 45.6718
415 2 13.0948 19.0409 41.6126
416 2 26.9799 3.12541 44.2896
417 2 28.8996 22.6965 48.9536
418 2 26.0429 1.65937 41.8849
419 2 24.1498 10.0183 44.4454
420 2 15.0368 8.28398 39.1928
421 1 15.8729 18.8201 31.4383
422 1 19.7526 20.5928 30
423 1 21.2726 16.6515 31.4383
424 1 14.353 22.7614 30
425 2 16.8836 21.1294 30.2063
426 2 18.742 18.2835 31.232
427 2 11.4839 22.2248 30.2063
428 2 13.3423 17.1881 31.232
429 2 19.2496 23.0832 30.6132
430 2 16.376 16.3297 30.8251
431 2 13.8499 20.271 30.6132
432 2 10.9763 19.1419 30.8251
433 1 19.1006 18.8201 34.086
434 1 12.1809 20.5928 32.6477
435 1 13.7009 16.6515 34.086
436 1 17.5806 22.7614 32.6477
437 2 20.1112 21.1294 32.854
438 2 11.1703 18.2835 33.8797
439 2 14.7116 22.2248 32.854
440 2 16.5699 17.1881 33.8797
441 2 11.6779 23.0832 33.261
442 2 19.6036 16.3297 33.4728
443 2 17.0775 20.271 33.261
444 2 14.204 19.1419 33.4728
445 1 11.1411 19.0026 36.9755
446 1 15.4796 20.7665 35.1555
447 1 16.9187 16.4526 36.5395
448 1 20.8368 22.9454 35.2838
449 2 12.2372 21.2015 35.6502
450 2 14.4367 18.694 36.4703
451 2 18.4331 21.9905 35.2451
452 2 20.2029 17.1714 36.9755
453 2 15.232 23.1131 35.6455
454 2 11.9444 16.5236 36.3434
455 2 20.3973 20.2643 35.6355
456 2 17.3459 19.1389 35.907
457 1 15.0649 18.886 39.6668
458 1 18.8063 20.3125 37.6658
459 1 20.1654 16.3373 39.4678
460 1 13.3079 22.9234 38.0408
461 2 16.1166 20.8756 38.1407
462 2 10.1194 19.2421 39.3117
463 2 21.429 22.0422 38.6116
464 2 14.1082 17.28 49.8516
465 2 0.344944 9.4777 47.3179
466 2 19.4875 10.6183 46.139
467 2 17.593 2.17517 39.4015
468 2 21.1167 19.2688 39.0319
469 1 18.3494 18.7302 42.0431
470 1 11.0925 20.6944 41.1799
471 1 12.5187 16.6454 42.1058
472 1 16.7721 22.5539 40.9123
473 2 19.6866 6.10824 46.6368
474 2 21.5257 8.13093 44.6963
475 2 21.3625 18.4486 41.8958
476 2 30.5508 20.3413 43.7722
477 2 0.916341 20.3506 46.8166
478 2 29.8238 17.4875 44.9876
479 2 23.9702 2.13542 44.6597
480 2 22.1512 13.6348 44.1682
481 1 21.7585 18.7157 44.8972
482 1 14.3633 20.4472 43.4789
483 1 16.2057 16.5001 45.2025
484 1 19.5767 23.0435 43.7074
485 2 11.2355 23.0455 40.8298
486 2 5.40893 11.1295 44.6313
487 2 24.7049 12.7108 46.173
488 2 6.27523 23.2695 46.5149
489 2 10.404 6.43671 38.4225
490 2 5.1672 12.3471 41.1439
491 2 9.78904 10.4252 42.4
492 2 13.014 17.1458 39.8484
493 1 13.9105 18.8468 47.9612
494 1 17.3871 20.448 46.1686
495 1 19.1134 16.5873 47.8305
496 1 12.0809 22.5688 46.4227
497 2 20.0195 14.0537 47.2569
498 2 16.4262 10.6577 46.9976
499 2 29.9558 3.48844 47.885
500 2 8.51388 11.2629 46.9235
501 2 22.9843 20.7122 46.2252
502 2 16.7951 5.81844 43.5733
503 2 11.0866 13.1819 43.5048
504 2 8.48176 20.2023 44.3105
505 1 26.6722 3.05499 31.4383
506 1 30.5519 4.82759 30
507 1 32.0719 0.886302 31.4383
508 1 25.1523 6.99628 30
509 2 27.6829 5.36421 30.2063
510 2 29.5413 2.51837 31.232
511 2 22.2833 6.45966 30.2063
512 2 24.1416 1.42292 31.232
513 2 30.0489 7.31804 30.6132
514 2 27.1753 0.564542 30.8251
515 2 24.6492 4.50583 30.6132
516 2 21.7756 3.37675 30.8251
517 1 29.8999 3.05499 34.086
518 1 22.9803 4.82759 32.6477
519 1 24.5002 0.886302 34.086
520 1 28.3799 6.99628 32.6477
521 2 30.9105 5.36421 32.854
522 2 21.9696 2.51837 33.8797
523 2 25.5109 6.45966 32.854
524 2 27.3693 1.42292 33.8797
525 2 22.4772 7.31804 33.261
526 2 30.4029 0.564542 33.4728
527 2 27.8769 4.50583 33.261
528 2 25.0033 3.37675 33.4728
529 1 22.2424 3.21027 36.6971
530 1 26.101 4.60855 35.4125
531 1 27.6081 0.960288 36.7612
532 1 31.6873 6.90235 35.3466
533 2 23.2905 5.36387 35.7809
534 2 24.8336 2.48875 36.6516
535 2 28.7717 6.17709 35.2955
536 2 28.899 23.1871 38.8397
537 2 25.5462 6.88324 35.7861
538 2 22.5398 0.537323 36.7037
539 2 30.9695 4.3365 35.9755
540 2 28.4868 3.89835 36.2216
541 1 25.3736 3.09784 39.7616
542 1 29.646 4.75619 38.0668
543 1 31.1617 0.982777 39.1629
544 1 23.9916 6.86893 37.8965
545 2 0.0501739 0.954666 44.5139
546 2 26.0786 0.623007 38.9517
547 2 7.35674 7.2304 38.7577
548 2 19.1988 20.2698 44.0203
549 2 31.4382 3.40587 38.9813
550 2 16.4592 11.1845 44.0939
551 2 28.912 7.14045 38.3286
552 2 30.2647 1.55095 36.8327
553 1 28.8667 3.14681 42.2265
554 1 21.771 4.82573 40.4725
555 1 23.1006 0.741942 42.381
556 1 27.2644 6.82519 40.8258
557 2 17.2247 15.2167 46.8946
558 2 5.6665 2.99911 47.4625
559 2 7.88903 1.72745 44.6783
560 2 21.2697 9.99191 41.9993
561 2 0.43179 1.70775 47.2909
562 2 13.3879 14.6628 40.9913
563 2 20.4956 3.37344 38.8445
564 2 23.6702 4.40402 38.572
565 1 32.1123 3.16904 45.2244
566 1 24.9608 4.92023 43.4986
567 1 26.5615 0.936968 44.8095
568 1 30.3874 7.18132 43.5796
569 2 18.1627 14.8721 38.8076
570 2 2.73055 14.1753 40.4848
571 2 26.8907 5.15677 38.7193
572 2 29.695 5.51945 41.0516
573 2 9.89796 17.9753 42.4209
574 2 21.6404 23.1721 40.9715
575 2 0.809664 13.2466 44.2677
576 2 0.962214 4.87585 46.7723
577 1 24.4143 3.54932 47.8905
578 1 28.2513 4.69999 46.2135
579 1 29.4705 1.1659 47.7179
580 1 22.756 6.97343 46.7254
581 2 28.8598 15.0411 46.3734
582 2 27.2619 19.3282 44.7586
583 2 9.18798 21.7918 46.4337
584 2 7.24078 0.50921 42.0689
585 2 27.1229 12.2317 40.7284
586 2 3.16928 8.89669 47.2871
587 2 12.0217 12.5662 47.1595
588 2 1.43245 1.88392 39.2551
589 1 26.6722 10.9376 31.4383
590 1 30.5519 12.7102 30
591 1 32.0719 8.76888 31.4383
592 1 25.1523 14.8789 30
593 2 27.6829 13.2468 30.2063
594 2 29.5413 10.401 31.232
595 2 22.2833 14.3422 30.2063
596 2 24.1416 9.3055 31.232
597 2 30.0489 15.2006 30.6132
598 2 27.1753 8.44712 30.8251
599 2 24.6492 12.3884 30.6132
600 2 21.7756 11.2593 30.8251
601 1 29.8999 10.9376 34.086
602 1 22.9803 12.7102 32.6477
603 1 24.5002 8.76888 34.086
604 1 28.3799 14.8789 32.6477
605 2 30.9105 13.2468 32.854
606 2 21.9696 10.401 33.8797
607 2 25.5109 14.3422 32.854
608 2 27.3693 9.3055 33.8797
609 2 22.4772 15.2006 33.261
610 2 30.4029 8.44712 33.4728
611 2 27.8769 12.3884 33.261
612 2 25.0033 11.2593 33.4728
613 1 22.5169 10.7102 36.8672
614 1 26.2296 12.7566 35.4016
615 1 27.7837 8.97759 36.737
616 1 31.4029 14.9893 35.242
617 2 24.0006 12.6915 36.5032
618 2 22.7602 8.10502 36.268
619 2 28.9697 14.3832 35.7752
620 2 30.7166 9.2465 36.165
621 2 25.7989 15.1977 35.7713
622 2 20.1188 9.4094 36.0831
623 2 30.6472 12.4395 35.8171
624 2 25.9692 8.17294 39.0936
625 1 25.7745 10.606 39.511
626 1 28.9999 12.6666 37.9496
627 1 30.7808 8.64409 39.4211
628 1 24.2528 14.957 38.4521
629 2 26.3879 13.8925 38.4945
630 2 28.134 11.3232 36.2647
631 2 28.3808 15.5885 38.6345
632 2 25.3396 9.69513 36.8638
633 2 30.2226 13.2307 41.6526
634 2 10.9825 16.4193 44.2149
635 2 32.2688 22.9965 40.9477
636 2 3.3299 15.1045 43.6247
637 1 28.8864 11.2114 42.3688
638 1 21.9676 12.2579 40.9701
639 1 23.5263 8.6394 42.2445
640 1 27.3885 15.1894 41.0519
641 2 5.28784 4.59204 41.4766
642 2 5.98592 14.5279 43.6429
643 2 21.1489 8.37555 47.8906
644 2 7.13766 3.08583 39.85
645 2 31.108 14.3437 38.0378
646 2 3.58281 21.4137 45.9147
647 2 31.0691 11.2487 38.6368
648 2 16.2623 22.6679 43.7672
649 1 32.0019 11.1246 45.3201
650 1 25.1742 12.574 43.6025
651 1 26.4062 8.74282 44.9898
652 1 30.0109 15.0241 43.8269
653 2 18.1967 16.2894 49.8143
654 2 19.7006 12.2163 43.9315
655 2 22.4028 21.2816 43.4159
656 2 24.6755 8.97618 46.7266
657 2 23.7409 3.68459 41.8208
658 2 30.737 6.45734 46.1957
659 2 11.6719 21.3664 43.7179
660 2 10.0654 2.26083 42.4413
661 1 26.2656 7.7142 48.8804
662 1 28.207 12.2514 46.5862
663 1 30.2053 8.25364 47.7991
664 1 23.0308 15.3181 46.4955
665 2 30.3817 11.0334 46.898
666 2 5.36258 3.08583 44.3812
667 2 25.3925 16.2571 40.1722
668 2 13.1 11.033 41.7874
669 2 19.0715 16.0859 41.5395
670 2 1.96432 11.6259 41.1691
671 2 28.9384 0.720209 41.9634
672 2 27.8926 10.0503 47.7476
673 1 26.6722 18.8201 31.4383
674 1 30.5519 20.5928 30
675 1 32.0719 16.6515 31.4383
676 1 25.1523 22.7614 30
677 2 27.6829 21.1294 30.2063
678 2 29.5413 18.2835 31.232
679 2 22.2833 22.2248 30.2063
680 2 24.1416 17.1881 31.232
681 2 30.0489 23.0832 30.6132
682 2 27.1753 16.3297 30.8251
683 2 24.6492 20.271 30.6132
684 2 21.7756 19.1419 30.8251
685 1 29.8999 18.8201 34.086
686 1 22.9803 20.5928 32.6477
687 1 24.5002 16.6515 34.086
688 1 28.3799 22.7614 32.6477
689 2 30.9105 21.1294 32.854
690 2 21.9696 18.2835 33.8797
691 2 25.5109 22.2248 32.854
692 2 27.3693 17.1881 33.8797
693 2 22.4772 23.0832 33.261
694 2 30.4029 16.3297 33.4728
695 2 27.8769 20.271 33.261
696 2 25.0033 19.1419 33.4728
697 1 22.3152 19.2239 36.9097
698 1 26.2244 20.5051 35.2812
699 1 27.5916 16.8231 36.5875
700 1 31.4449 22.6602 35.3729
701 2 23.7677 20.7391 35.4216
702 2 25.4534 18.4325 36.686
703 2 28.7719 22.2944 35.7242
704 2 30.25 17.3332 36.4247
705 2 25.4171 23.0386 36.2188
706 2 23.1797 16.4967 36.417
707 2 30.7964 20.1064 36.0559
708 2 28.2538 19.4348 36.0447
709 1 25.6392 19.0577 39.4737
710 1 29.3755 20.7361 38.2272
711 1 30.5639 16.6767 39.3924
712 1 24.0596 23.0467 38.2708
713 2 23.5649 20.1243 38.9112
714 2 26.3045 20.44 41.7295
715 2 31.9215 22.0613 38.1672
716 2 31.7848 18.1945 41.8656
717 2 28.0896 18.5279 39.4077
718 2 27.0344 2.58382 47.29
719 2 28.0006 22.4037 43.8819
720 2 2.80358 2.75717 44.678
721 1 28.8155 18.8892 42.5645
722 1 21.778 20.7346 41.0017
723 1 23.376 16.4266 42.0096
724 1 27.1419 22.9586 41.0206
725 2 24.3084 23.404 44.442
726 2 32.1691 7.20311 41.111
727 2 27.7871 7.33812 46.7449
728 2 24.7561 16.9247 47.5942
729 2 2.99366 7.44931 44.0046
730 2 28.6859 20.8707 41.0253
731 2 24.5667 14.0653 41.048
732 2 8.05196 4.87241 44.1178
733 1 32.2538 18.7807 44.8518
734 1 25.4484 20.8114 44.1095
735 1 26.4301 16.961 45.6261
736 1 30.5379 22.8294 43.2937
737 2 10.718 15.2028 41.1453
738 2 4.5498 8.67655 39.0814
739 2 26.4345 20.0025 49.5636
740 2 28.459 9.62566 38.9273
741 2 6.79389 7.2106 48.0993
742 2 21.3831 14.0561 38.4439
743 2 13.7775 10.5156 44.9345
744 2 28.3811 7.81631 50.2479
745 1 24.3455 19.3021 47.9893
746 1 28.9254 20.6731 47.3398
747 1 30.3577 16.7781 47.6017
748 1 26.2443 22.7318 49.0136
749 2 19.1055 4.65241 44.3508
750 2 0.548607 5.61922 43.6967
751 2 8.66488 13.1514 41.4759
752 2 11.3472 5.40854 43.3628
753 2 17.6024 13.9866 43.6282
754 2 15.6038 9.18326 41.8093
755 2 14.1426 15.2146 44.3483
756 2 3.82138 12.9018 45.752
