# LAMMPS data file
756 atoms
3 atom types
0.0 32.39794198551478 xlo xhi
0.0 23.64774 ylo yhi
0.0 77.32469402918946 zlo zhi

Atoms # atomic

1 1 5.07362 3.05499 31.4383
2 1 8.95332 4.82759 30
3 1 10.4733 0.8863 31.4383
4 1 3.55366 6.99628 30
5 2 6.08428 5.36421 30.2063
6 2 7.94266 2.51837 31.232
7 2 0.68463 6.45966 30.2063
8 2 2.543 1.42292 31.232
9 2 8.45027 7.31804 30.6132
10 2 5.57667 0.56454 30.8251
11 2 3.05061 4.50583 30.6132
12 2 0.17702 3.37675 30.8251
13 1 8.30125 3.05499 34.086
14 1 1.38163 4.82759 32.6477
15 1 2.90159 0.8863 34.086
16 1 6.78129 6.99628 32.6477
17 2 9.31191 5.36421 32.854
18 2 0.37097 2.51837 33.8797
19 2 3.91225 6.45966 32.854
20 2 5.77063 1.42292 33.8797
21 2 0.87858 7.31804 33.261
22 2 8.8043 0.56454 33.4728
23 2 6.27824 4.50583 33.261
24 2 3.40464 3.37675 33.4728
25 1 0.529625 3.16723 36.622
26 1 4.7404 4.87094 35.403
27 1 6.21284 0.745508 36.8279
28 1 10.0103 7.02448 35.2626
29 2 24.8166 9.77651 46.2498
30 2 30.3765 3.88032 44.1201
31 2 2.23994 4.74882 45.8638
32 2 17.1215 13.8358 43.5659
33 2 18.7205 13.0064 40.3785
34 2 17.9941 23.3698 47.0547
35 2 32.1285 7.18539 41.1688
36 2 15.1863 0.833082 39.3357
37 1 3.63899 2.69178 39.6933
38 1 7.82319 4.88044 37.9182
39 1 9.46767 0.968065 39.7371
40 1 2.58242 6.71333 38.1013
41 2 13.5843 6.37977 41.0026
42 2 15.6536 12.3309 41.6596
43 2 26.1989 15.8957 38.9149
44 2 22.9006 3.66536 47.6524
45 2 23.9272 18.9784 41.9308
46 2 23.5518 4.88538 39.1178
47 2 1.53869 8.45995 36.0883
48 2 28.4757 18.7432 36.4905
49 1 7.37855 3.05838 42.256
50 1 0.236052 4.68606 41.0648
51 1 1.74736 0.435955 42.4179
52 1 5.45399 7.22572 41.0104
53 2 1.21432 16.7551 39.7305
54 2 28.3635 3.39704 36.0954
55 2 19.6808 17.5208 36.9788
56 2 29.2284 0.497071 42.0954
57 2 12.6651 13.244 35.6726
58 2 31.7788 9.8902 41.9049
59 2 2.4962 3.31757 42.3545
60 2 18.3586 17.441 44.6442
61 1 13.1242 3.53615 47.8585
62 1 3.8187 4.88602 43.7184
63 1 6.08942 20.8871 46.6616
64 1 8.91895 7.07454 43.298
65 2 15.5671 17.5054 42.26
66 2 4.89358 5.03213 38.034
67 2 29.0633 16.1729 42.3686
68 2 10.0936 17.5087 46.8048
69 2 15.2448 8.66196 38.4058
70 2 29.1328 1.20971 44.0993
71 2 12.7161 20.6309 46.9396
72 2 7.62506 0.521427 41.7012
73 1 0.371197 3.15343 45.2051
74 1 0.838332 16.9577 50.1957
75 1 2.97811 18.8359 47.4697
76 1 0.966142 7.2857 46.4025
77 2 9.26849 12.629 44.1899
78 2 7.97772 9.87702 44.4164
79 2 9.75939 20.3094 35.7662
80 2 24.0729 6.23769 41.1532
81 2 5.27866 17.8336 47.8835
82 2 1.31804 16.4523 36.4597
83 2 29.7822 5.32612 41.2557
84 1 5.07362 10.9376 31.4383
85 1 8.95332 12.7102 30
86 1 10.4733 8.76888 31.4383
87 1 3.55366 14.8789 30
88 2 6.08428 13.2468 30.2063
89 2 7.94266 10.401 31.232
90 2 0.68463 14.3422 30.2063
91 2 2.543 9.3055 31.232
92 2 8.45027 15.2006 30.6132
93 2 5.57667 8.44712 30.8251
94 2 3.05061 12.3884 30.6132
95 2 0.17702 11.2593 30.8251
96 1 8.30125 10.9376 34.086
97 1 1.38163 12.7102 32.6477
98 1 2.90159 8.76888 34.086
99 1 6.78129 14.8789 32.6477
100 2 9.31191 13.2468 32.854
101 2 0.37097 10.401 33.8797
102 2 3.91225 14.3422 32.854
103 2 5.77063 9.3055 33.8797
104 2 0.87858 15.2006 33.261
105 2 8.8043 8.44712 33.4728
106 2 6.27824 12.3884 33.261
107 2 3.40464 11.2593 33.4728
108 1 0.802339 10.9089 36.7463
109 1 4.71981 12.6369 35.4812
110 1 6.07421 8.76816 36.5479
111 1 10.1056 14.709 35.2873
112 2 20.5218 0.959085 46.1021
113 2 6.07752 11.32 36.8515
114 2 12.8014 4.52434 38.7169
115 2 22.8163 11.2436 42.7982
116 2 31.6071 3.1045 47.4567
117 2 1.9166 5.07776 35.1763
118 2 8.80041 9.54802 36.6036
119 2 8.4443 13.0805 40.8746
120 1 3.79399 10.8188 39.433
121 1 8.28783 12.4011 38.0493
122 1 9.21164 8.93152 39.7541
123 1 2.59198 14.9569 38.0779
124 2 4.38063 14.9601 35.8155
125 2 12.2564 1.42587 39.7433
126 2 4.40577 8.32736 39.1401
127 2 15.6049 4.2624 41.7199
128 2 7.13198 10.2263 39.3774
129 2 4.17479 7.42757 36.2119
130 2 29.1815 15.1032 39.0254
131 2 1.99925 4.26543 38.9456
132 1 6.99608 11.2498 42.1768
133 1 0.174305 12.7602 40.7798
134 1 1.76701 8.34196 42.0709
135 1 5.79154 15.213 40.3181
136 2 23.3849 20.4603 46.583
137 2 30.0293 11.4883 48.6532
138 2 5.0215 20.8326 41.3921
139 2 14.6357 18.3801 36.2895
140 2 10.7233 6.48267 38.7089
141 2 16.2923 19.2652 44.7367
142 2 24.775 14.6864 44.6157
143 2 14.8632 7.29486 35.8418
144 1 10.3334 10.4117 45.1492
145 1 3.52831 12.5118 43.3598
146 1 4.99167 9.072 44.8732
147 1 9.25304 14.9039 43.3618
148 2 2.30771 11.5045 41.3159
149 2 7.69728 14.7977 38.5916
150 2 2.97811 2.64218 36.1497
151 2 0.929631 13.6606 43.839
152 2 12.3327 0.356705 35.8711
153 2 26.1559 13.0071 46.4913
154 2 15.0528 16.1282 39.2615
155 2 31.5133 5.37595 45.5903
156 1 1.77419 15.1717 46.3572
157 1 6.57457 12.9142 46.01
158 1 9.98549 2.95118 45.4899
159 1 31.9206 12.6612 49.7855
160 2 10.7789 7.36986 41.3092
161 2 8.85 20.8311 46.2886
162 2 24.6904 22.467 41.1225
163 2 20.3976 10.5 42.0978
164 2 7.30512 6.22486 35.3135
165 2 25.0084 23.2235 44.1323
166 2 17.4161 6.69782 45.1767
167 1 5.07362 18.8201 31.4383
168 1 8.95332 20.5928 30
169 1 10.4733 16.6515 31.4383
170 1 3.55366 22.7614 30
171 2 6.08428 21.1294 30.2063
172 2 7.94266 18.2835 31.232
173 2 0.68463 22.2248 30.2063
174 2 2.543 17.1881 31.232
175 2 8.45027 23.0832 30.6132
176 2 5.57667 16.3297 30.8251
177 2 3.05061 20.271 30.6132
178 2 0.17702 19.1419 30.8251
179 1 8.30125 18.8201 34.086
180 1 1.38163 20.5928 32.6477
181 1 2.90159 16.6515 34.086
182 1 6.78129 22.7614 32.6477
183 2 9.31191 21.1294 32.854
184 2 0.37097 18.2835 33.8797
185 2 3.91225 22.2248 32.854
186 2 5.77063 17.1881 33.8797
187 2 0.87858 23.0832 33.261
188 2 8.8043 16.3297 33.4728
189 2 6.27824 20.271 33.261
190 2 3.40464 19.1419 33.4728
191 1 0.430868 18.672 36.854
192 1 4.77917 20.4794 35.2459
193 1 6.29335 16.6062 36.7925
194 1 9.92237 22.6868 35.2558
195 2 1.61502 21.3362 35.5741
196 2 5.77385 19.434 44.5387
197 2 7.28393 22.5153 35.9015
198 2 14.7988 9.03552 47.1877
199 2 4.18343 23.2638 35.6145
200 2 3.75037 20.8543 45.9461
201 2 28.1228 2.09937 47.837
202 2 3.05072 6.25401 40.7522
203 1 4.08457 19.4767 39.2859
204 1 7.84621 20.6969 38.2766
205 1 9.60245 16.3034 39.7107
206 1 2.59065 22.8287 37.7722
207 2 13.3499 16.2317 47.6228
208 2 22.2736 16.3948 44.839
209 2 29.7002 21.7552 48.6543
210 2 23.2675 9.03752 39.2114
211 2 9.89797 3.2222 38.9458
212 2 6.50938 2.2467 39.6021
213 2 23.0048 5.50752 35.4906
214 2 31.3074 2.99879 38.8577
215 1 7.10339 18.9198 42.0017
216 1 0.263011 20.602 40.8195
217 1 1.85381 16.7048 42.3106
218 1 5.91647 22.9818 40.8941
219 2 26.1907 15.0367 35.7512
220 2 20.6572 2.58506 42.0899
221 2 12.457 2.5384 45.2104
222 2 2.44124 19.3212 41.8161
223 2 10.9128 16.322 44.2138
224 2 30.2154 13.3207 41.8322
225 2 0.983443 21.3783 43.7044
226 2 18.0753 8.51154 42.5736
227 1 10.455 19.1027 45.2542
228 1 3.82998 20.8615 43.3662
229 1 5.54409 16.87 44.6736
230 1 8.86756 22.8201 43.7023
231 2 7.76295 8.73055 41.5516
232 2 28.0969 7.18204 47.771
233 2 18.9913 16.2961 41.6238
234 2 15.1795 13.3017 48.6517
235 2 27.3403 10.6423 44.866
236 2 26.5863 5.37265 38.1645
237 2 13.11 17.8201 44.7005
238 2 29.2543 23.112 45.8383
239 1 7.90147 16.8124 47.4979
240 1 15.6362 23.3858 49.2899
241 1 3.22976 11.0639 48.0014
242 1 4.84641 0.979476 44.8552
243 2 25.0478 2.85808 36.9944
244 2 24.7743 1.13401 47.4792
245 2 28.6402 7.40911 38.9491
246 2 9.75148 9.9206 41.9441
247 2 3.56913 15.5391 44.3083
248 2 24.9485 5.59097 46.1712
249 2 12.9911 0.609414 49.2831
250 2 29.1778 14.2981 35.9997
251 1 15.8729 3.05499 31.4383
252 1 19.7526 4.82759 30
253 1 21.2726 0.8863 31.4383
254 1 14.353 6.99628 30
255 2 16.8836 5.36421 30.2063
256 2 18.742 2.51837 31.232
257 2 11.4839 6.45966 30.2063
258 2 13.3423 1.42292 31.232
259 2 19.2496 7.31804 30.6132
260 2 16.376 0.56454 30.8251
261 2 13.8499 4.50583 30.6132
262 2 10.9763 3.37675 30.8251
263 1 19.1006 3.05499 34.086
264 1 12.1809 4.82759 32.6477
265 1 13.7009 0.8863 34.086
266 1 17.5806 6.99628 32.6477
267 2 20.1112 5.36421 32.854
268 2 11.1703 2.51837 33.8797
269 2 14.7116 6.45966 32.854
270 2 16.5699 1.42292 33.8797
271 2 11.6779 7.31804 33.261
272 2 19.6036 0.56454 33.4728
273 2 17.0775 4.50583 33.261
274 2 14.204 3.37675 33.4728
275 1 11.5696 3.13033 37.0319
276 1 15.4419 4.7829 35.4389
277 1 16.9723 0.861081 37.3025
278 1 20.4523 6.93224 35.2462
279 2 12.6604 5.0029 35.5282
280 2 23.4065 12.1663 46.1935
281 2 17.6824 6.2687 35.5742
282 2 19.8181 1.20109 37.0149
283 2 16.0676 5.02877 38.574
284 2 10.6351 14.1156 37.9715
285 2 21.6795 6.36273 39.0442
286 1 14.5685 3.09157 39.815
287 1 18.5072 4.63903 38.1923
288 1 20.3086 0.897391 39.602
289 1 13.2211 7.24417 37.9635
290 2 19.0827 0.40956 41.8859
291 2 9.8239 4.5362 35.87
292 2 5.55689 11.4515 44.0656
293 2 31.6919 2.09183 42.4332
294 2 26.252 21.8261 46.5647
295 2 18.0867 15.2674 38.8258
296 2 8.92841 14.3615 46.6821
297 2 29.2667 14.919 46.3245
298 1 18.0786 3.06444 41.7317
299 1 11.1673 4.89423 40.836
300 1 12.3292 0.831695 42.7119
301 1 16.4418 7.00984 40.7008
302 2 20.7049 18.3251 42.6247
303 2 22.9725 17.4446 39.8709
304 2 8.25731 21.2879 41.1808
305 2 22.9658 16.4618 36.3373
306 2 31.7989 14.226 38.2996
307 2 21.5699 0.923358 44.2801
308 2 1.67858 0.7181 39.9333
309 2 8.93466 1.08508 36.6439
310 1 21.0872 3.40734 45.2551
311 1 14.2053 4.20294 43.6612
312 1 19.6966 1.32669 48.5071
313 1 19.5985 6.88511 43.8911
314 2 3.35062 10.4773 36.4991
315 2 15.2757 9.15931 41.8199
316 2 28.1673 18.3351 47.6457
317 2 22.0003 5.76919 44.0496
318 2 23.4057 12.4036 38.5968
319 2 6.77789 19.3836 36.2082
320 2 1.2324 0.677845 36.225
321 2 24.3656 2.34687 45.5508
322 1 12.045 23.2845 46.7915
323 1 17.3731 4.66573 46.6948
324 1 30.0356 8.76302 48.462
325 1 12.8799 7.19326 46.4296
326 2 8.10871 17.4306 44.9185
327 2 7.72793 7.43304 38.4803
328 2 12.9159 5.91585 48.6253
329 2 15.6045 22.3204 47.268
330 2 10.6431 1.1304 44.5646
331 2 18.3357 14.6652 48.8764
332 2 9.83677 19.0284 39.296
333 2 16.3116 20.3784 41.1702
334 1 15.8729 10.9376 31.4383
335 1 19.7526 12.7102 30
336 1 21.2726 8.76888 31.4383
337 1 14.353 14.8789 30
338 2 16.8836 13.2468 30.2063
339 2 18.742 10.401 31.232
340 2 11.4839 14.3422 30.2063
341 2 13.3423 9.3055 31.232
342 2 19.2496 15.2006 30.6132
343 2 16.376 8.44712 30.8251
344 2 13.8499 12.3884 30.6132
345 2 10.9763 11.2593 30.8251
346 1 19.1006 10.9376 34.086
347 1 12.1809 12.7102 32.6477
348 1 13.7009 8.76888 34.086
349 1 17.5806 14.8789 32.6477
350 2 20.1112 13.2468 32.854
351 2 11.1703 10.401 33.8797
352 2 14.7116 14.3422 32.854
353 2 16.5699 9.3055 33.8797
354 2 11.6779 15.2006 33.261
355 2 19.6036 8.44712 33.4728
356 2 17.0775 12.3884 33.261
357 2 14.204 11.2593 33.4728
358 1 11.6569 10.7443 36.8283
359 1 15.6275 12.4498 35.3433
360 1 16.9288 8.77115 36.7306
361 1 20.9674 14.9335 35.4066
362 2 17.6572 14.1386 35.5075
363 2 15.0987 3.4381 46.2022
364 2 20.4234 12.4001 35.8418
365 2 1.03217 12.3164 47.1943
366 2 17.3335 2.33107 39.4853
367 2 2.39077 14.9032 40.7002
368 2 31.8375 22.3201 38.5119
369 2 29.7121 20.982 41.0026
370 1 15.0881 11.085 39.631
371 1 18.7378 12.6342 37.7772
372 1 20.0113 8.64673 39.5746
373 1 13.3836 14.9386 37.877
374 2 1.806 12.2329 38.5019
375 2 4.08242 18.239 36.3191
376 2 20.3824 20.427 35.9524
377 2 15.6883 11.4844 45.8678
378 2 1.14354 5.83917 43.5114
379 2 13.5003 10.1215 44.9672
380 2 7.36139 23.1041 38.8813
381 2 7.87169 1.39797 44.5136
382 1 18.1879 11.3649 42.4269
383 1 11.7476 12.8042 40.888
384 1 12.8138 8.63821 42.3325
385 1 16.6949 14.7052 41.0736
386 2 3.02536 8.63871 47.5328
387 2 27.7805 5.64632 44.535
388 2 32.2291 0.498483 45.593
389 2 2.5101 16.539 48.2943
390 2 19.4453 3.6692 47.236
391 2 19.202 20.4698 44.4504
392 2 26.7302 18.8506 45.0785
393 2 17.7865 18.1255 39.4665
394 1 28.7311 12.4812 46.6199
395 1 14.1672 12.6593 43.5878
396 1 16.394 9.20971 44.766
397 1 19.8491 15.3269 43.7537
398 2 21.1274 7.54903 41.8102
399 2 26.2614 1.7203 41.7939
400 2 17.066 15.2901 45.9017
401 2 0.0237109 8.40576 44.1546
402 2 7.02225 17.9786 39.7189
403 2 12.5286 20.451 39.1031
404 2 21.074 11.1075 38.8932
405 1 13.7708 11.337 47.7653
406 1 17.916 12.8346 46.6039
407 1 21.2576 10.9969 44.7585
408 1 11.6242 15.0183 46.3849
409 2 22.79 1.71647 39.3965
410 2 2.51165 10.1794 45.1955
411 2 6.53185 6.86185 44.0448
412 2 16.9088 2.98935 44.4588
413 2 13.8268 14.3074 41.5626
414 2 14.4169 6.8969 44.0367
415 2 11.1021 7.9772 44.2831
416 1 15.8729 18.8201 31.4383
417 1 19.7526 20.5928 30
418 1 21.2726 16.6515 31.4383
419 1 14.353 22.7614 30
420 2 16.8836 21.1294 30.2063
421 2 18.742 18.2835 31.232
422 2 11.4839 22.2248 30.2063
423 2 13.3423 17.1881 31.232
424 2 19.2496 23.0832 30.6132
425 2 16.376 16.3297 30.8251
426 2 13.8499 20.271 30.6132
427 2 10.9763 19.1419 30.8251
428 1 19.1006 18.8201 34.086
429 1 12.1809 20.5928 32.6477
430 1 13.7009 16.6515 34.086
431 1 17.5806 22.7614 32.6477
432 2 20.1112 21.1294 32.854
433 2 11.1703 18.2835 33.8797
434 2 14.7116 22.2248 32.854
435 2 16.5699 17.1881 33.8797
436 2 11.6779 23.0832 33.261
437 2 19.6036 16.3297 33.4728
438 2 17.0775 20.271 33.261
439 2 14.204 19.1419 33.4728
440 1 11.5692 18.8409 37.1712
441 1 15.3092 20.501 35.1604
442 1 16.9481 16.6443 36.9109
443 1 20.7145 22.7118 35.1169
444 2 9.96461 12.241 35.9311
445 2 14.8259 23.0359 36.3066
446 2 18.3908 22.3777 36.059
447 2 13.3686 10.8492 41.6106
448 2 12.7044 21.4438 35.8144
449 2 26.1959 16.9593 41.3496
450 2 21.2449 14.4845 38.222
451 2 6.81996 3.1063 36.2695
452 1 14.4798 18.8904 39.7943
453 1 18.8241 20.5263 38.2791
454 1 20.1488 16.6889 39.5339
455 1 13.0538 22.8874 38.211
456 2 9.18813 4.60728 43.4472
457 2 14.7338 9.94889 36.3245
458 2 20.18 3.44188 39.3161
459 2 25.1394 10.6728 36.4436
460 2 11.9363 9.60315 47.0001
461 2 20.3808 14.0485 46.1366
462 2 22.4821 21.2811 43.3504
463 2 4.73101 9.62381 41.9771
464 1 18.0101 19.156 42.2187
465 1 10.71 20.5943 41.2539
466 1 12.8139 16.4575 42.5176
467 1 16.5002 23.1071 40.8272
468 2 2.29592 19.9921 38.0195
469 2 25.2865 16.3909 46.963
470 2 17.6255 9.71185 39.3888
471 2 29.6993 13.9855 48.4044
472 2 12.2575 16.5741 36.3194
473 2 5.99839 22.5449 43.8646
474 2 4.67272 23.4927 47.4059
475 2 8.17062 5.29077 40.667
476 1 21.6433 19.1933 44.9838
477 1 14.2007 20.8717 43.8323
478 1 15.4771 16.9861 45.3601
479 1 20.002 22.9437 43.7454
480 2 12.7773 3.36835 42.2444
481 2 2.09284 11.9782 50.0828
482 2 14.2927 2.98887 36.8692
483 2 17.3987 23.0944 43.9726
484 2 28.0573 9.77847 47.3653
485 2 2.24772 1.27152 45.327
486 2 25.0893 18.5413 36.8717
487 2 15.6833 1.6382 42.567
488 1 22.5286 6.96515 46.9036
489 1 17.4388 20.5543 46.4564
490 1 13.9557 18.9526 48.8108
491 1 15.7647 0.922686 45.7911
492 2 16.3998 13.5762 38.0933
493 2 23.8013 3.70498 42.0381
494 2 26.5226 20.2396 41.7619
495 2 25.6646 7.13277 43.7257
496 2 32.033 19.219 42.5296
497 2 20.3541 4.14862 36.1389
498 2 5.25786 3.13032 43.9458
499 2 3.10168 7.37538 44.0006
500 1 26.6722 3.05499 31.4383
501 1 30.5519 4.82759 30
502 1 32.0719 0.8863 31.4383
503 1 25.1523 6.99628 30
504 2 27.6829 5.36421 30.2063
505 2 29.5413 2.51837 31.232
506 2 22.2833 6.45966 30.2063
507 2 24.1416 1.42292 31.232
508 2 30.0489 7.31804 30.6132
509 2 27.1753 0.56454 30.8251
510 2 24.6492 4.50583 30.6132
511 2 21.7756 3.37675 30.8251
512 1 29.8999 3.05499 34.086
513 1 22.9803 4.82759 32.6477
514 1 24.5002 0.8863 34.086
515 1 28.3799 6.99628 32.6477
516 2 30.9105 5.36421 32.854
517 2 21.9696 2.51837 33.8797
518 2 25.5109 6.45966 32.854
519 2 27.3693 1.42292 33.8797
520 2 22.4772 7.31804 33.261
521 2 30.4029 0.56454 33.4728
522 2 27.8769 4.50583 33.261
523 2 25.0033 3.37675 33.4728
524 1 22.1837 3.00211 36.9592
525 1 25.9834 4.563 35.4646
526 1 27.5834 0.9952 36.7198
527 1 31.5468 7.41623 35.1607
528 2 27.221 3.01242 45.1151
529 2 23.2197 0.493377 36.3574
530 2 20.6145 19.2346 39.1668
531 2 30.2566 1.5252 36.7918
532 2 28.3575 6.1508 35.2474
533 2 23.8706 18.4456 45.3189
534 2 31.2107 5.00536 36.0803
535 2 5.26966 12.6677 40.895
536 1 25.562 3.26567 39.5756
537 1 29.5096 4.83889 38.0897
538 1 30.6751 0.611006 39.6838
539 1 23.8728 7.0107 37.9157
540 2 28.1549 11.0574 35.989
541 2 21.1605 22.0912 38.2423
542 2 12.4388 17.0106 38.9296
543 2 8.8614 17.02 36.896
544 2 25.6973 7.14072 35.7641
545 2 18.615 5.97286 40.7196
546 2 28.2633 2.5972 38.7906
547 2 5.86225 15.3006 46.6226
548 1 28.4468 2.99074 42.9059
549 1 21.8673 4.98011 41.1264
550 1 23.4385 1.18131 42.1629
551 1 26.6018 7.25175 40.9264
552 2 11.3808 15.1333 41.0983
553 2 7.26676 14.3108 35.613
554 2 2.74177 18.3235 45.0115
555 2 12.9128 19.0163 41.7699
556 2 28.0005 10.1994 39.3012
557 2 11.7723 12.4547 46.7827
558 2 1.19113 9.25589 39.2146
559 2 26.3389 4.93371 41.6776
560 1 1.7624 22.4816 46.2382
561 1 25.2022 4.72735 43.9958
562 1 27.1039 0.623289 45.5483
563 1 30.4713 6.62718 43.4707
564 2 3.03193 23.2063 43.9709
565 2 32.835 18.0961 47.5315
566 2 1.08953 20.092 46.9735
567 2 18.0217 7.18059 38.1918
568 2 25.9736 8.71279 38.2438
569 2 26.4424 20.8313 38.1852
570 2 23.7386 13.3658 48.8664
571 2 31.3113 15.3755 50.9042
572 1 25.4104 3.14993 47.5986
573 1 29.4718 4.58233 46.8264
574 1 30.7765 0.306949 47.5241
575 1 24.7371 11.2642 47.9963
576 2 10.5501 23.0795 41.63
577 2 10.5968 1.92963 47.7664
578 2 0.324037 15.2987 48.4179
579 2 20.3724 12.9151 42.8893
580 2 12.2407 9.58509 38.6874
581 2 32.0238 14.9586 41.803
582 2 7.45576 15.9445 42.0203
583 2 13.9049 23.5179 44.7146
584 1 26.6722 10.9376 31.4383
585 1 30.5519 12.7102 30
586 1 32.0719 8.76888 31.4383
587 1 25.1523 14.8789 30
588 2 27.6829 13.2468 30.2063
589 2 29.5413 10.401 31.232
590 2 22.2833 14.3422 30.2063
591 2 24.1416 9.3055 31.232
592 2 30.0489 15.2006 30.6132
593 2 27.1753 8.44712 30.8251
594 2 24.6492 12.3884 30.6132
595 2 21.7756 11.2593 30.8251
596 1 29.8999 10.9376 34.086
597 1 22.9803 12.7102 32.6477
598 1 24.5002 8.76888 34.086
599 1 28.3799 14.8789 32.6477
600 2 30.9105 13.2468 32.854
601 2 21.9696 10.401 33.8797
602 2 25.5109 14.3422 32.854
603 2 27.3693 9.3055 33.8797
604 2 22.4772 15.2006 33.261
605 2 30.4029 8.44712 33.4728
606 2 27.8769 12.3884 33.261
607 2 25.0033 11.2593 33.4728
608 1 22.4153 10.8477 36.5617
609 1 26.1928 12.7028 35.1147
610 1 27.8404 8.50048 36.6104
611 1 31.733 14.8545 35.5555
612 2 0.0404252 16.4533 45.0043
613 2 30.4723 9.2259 36.588
614 2 31.0732 6.32594 47.8184
615 2 31.253 8.99441 46.2524
616 2 2.67097 22.1885 41.0178
617 2 0.5658 22.7941 48.3447
618 2 1.8395 13.3491 35.6844
619 2 31.5827 11.4763 38.9731
620 1 25.4391 11.0358 39.5551
621 1 29.5257 12.6859 38.0877
622 1 30.6758 8.70842 39.6817
623 1 23.7102 15.0263 38.3045
624 2 17.6515 10.9912 36.2245
625 2 28.7143 22.8457 38.9712
626 2 11.9788 8.35859 36.1503
627 2 10.2581 11.4656 39.0921
628 2 24.974 13.5111 40.7602
629 2 27.9828 18.5764 40.0221
630 2 23.7861 13.6996 35.5548
631 2 31.2203 18.2197 50.6211
632 1 28.7974 11.5534 42.7813
633 1 21.5078 12.7324 40.6135
634 1 23.2552 8.45252 42.6195
635 1 27.2765 14.7286 40.8012
636 2 5.23593 21.2499 37.9364
637 2 22.5194 8.39725 36.0604
638 2 4.87392 17.2614 42.2451
639 2 22.9893 8.8013 48.6863
640 2 21.5206 16.8008 48.0395
641 2 27.9806 13.9798 43.6742
642 2 15.9933 20.8266 49.653
643 2 4.38765 17.0168 38.6017
644 1 30.1274 16.1735 48.3622
645 1 25.1646 11.999 44.1074
646 1 26.933 8.19353 45.6825
647 1 30.5578 14.8079 43.7347
648 2 4.29462 1.06143 41.9062
649 2 32.3546 6.4476 38.4702
650 2 19.8249 9.21233 37.2359
651 2 30.6295 12.5982 44.8021
652 2 26.1047 0.863126 38.9461
653 2 31.1905 12.3908 36.1493
654 2 26.7375 12.1051 41.5943
655 2 -0.498566 9.22518 49.2801
656 1 23.1401 15.0004 46.753
657 1 32.3468 11.007 44.9755
658 1 25.4816 19.116 47.1432
659 1 15.7415 15.6693 49.058
660 2 16.0891 20.9473 38.5172
661 2 4.87231 13.8384 38.1577
662 2 21.6442 15.0978 41.5657
663 2 29.557 17.0277 45.0726
664 2 14.2304 17.2375 50.526
665 2 31.6762 21.3429 46.2886
666 2 26.8839 13.0577 37.8893
667 2 25.7952 22.8634 36.104
668 1 26.6722 18.8201 31.4383
669 1 30.5519 20.5928 30
670 1 32.0719 16.6515 31.4383
671 1 25.1523 22.7614 30
672 2 27.6829 21.1294 30.2063
673 2 29.5413 18.2835 31.232
674 2 22.2833 22.2248 30.2063
675 2 24.1416 17.1881 31.232
676 2 30.0489 23.0832 30.6132
677 2 27.1753 16.3297 30.8251
678 2 24.6492 20.271 30.6132
679 2 21.7756 19.1419 30.8251
680 1 29.8999 18.8201 34.086
681 1 22.9803 20.5928 32.6477
682 1 24.5002 16.6515 34.086
683 1 28.3799 22.7614 32.6477
684 2 30.9105 21.1294 32.854
685 2 21.9696 18.2835 33.8797
686 2 25.5109 22.2248 32.854
687 2 27.3693 17.1881 33.8797
688 2 22.4772 23.0832 33.261
689 2 30.4029 16.3297 33.4728
690 2 27.8769 20.271 33.261
691 2 25.0033 19.1419 33.4728
692 1 22.5449 18.9729 36.7069
693 1 26.3931 20.7387 35.4343
694 1 28.0032 16.231 37.0535
695 1 31.5259 22.8243 35.3843
696 2 17.4104 19.2037 36.0619
697 2 16.8351 2.04729 49.3072
698 2 28.6211 21.9108 35.5487
699 2 15.0518 15.0658 36.138
700 2 23.5177 21.0191 35.1993
701 3 18.6207 10.9966 44.9338
702 2 10.3546 22.3397 38.403
703 2 5.6393 10.9967 47.5248
704 1 25.3712 18.7166 39.7192
705 1 29.1729 20.5123 38.1369
706 1 31.0519 16.3519 39.8445
707 1 24.2681 22.7057 38.2807
708 2 9.46243 18.1184 41.6114
709 2 20.3192 5.70361 46.5227
710 2 27.7895 21.9562 44.0295
711 2 19.7298 19.0229 47.0934
712 2 1.56679 19.1847 50.0626
713 2 19.0238 21.3995 41.1732
714 2 18.4468 23.0173 39.0496
715 2 30.7602 20.15 35.7333
716 1 28.8013 18.8252 42.4636
717 1 21.3709 20.7442 40.8933
718 1 23.5361 16.6541 42.7285
719 1 27.1751 22.8535 40.9493
720 2 17.5299 3.04517 36.3079
721 2 32.1702 23.0067 41.4507
722 2 25.5795 9.35148 42.1212
723 2 11.2393 21.5224 43.9213
724 2 31.3357 18.8781 39.312
725 2 29.0033 8.73591 42.8659
726 2 21.7071 23.2155 41.3385
727 2 30.6988 17.1947 36.695
728 1 32.2761 19.1221 45.0034
729 1 25.384 20.7691 43.8718
730 1 27.0002 16.019 45.2102
731 1 30.6163 22.8944 43.6475
732 2 22.9765 20.5297 38.9433
733 2 21.688 8.57309 45.0769
734 2 21.4761 -0.140882 48.7689
735 2 12.9198 12.4791 38.6521
736 2 13.9413 14.9607 44.626
737 2 3.76978 12.7883 45.9464
738 2 6.2815 13.8402 43.6445
739 2 8.86143 20.2931 43.2844
740 1 28.7569 20.5975 46.3
741 1 32.0402 20.3064 49.172
742 1 18.8889 16.9258 47.4503
743 1 22.9501 23.3774 46.429
744 2 29.8538 20.4802 44.0098
745 2 19.113 4.49369 43.9916
746 2 10.2775 2.47513 41.8188
747 2 11.598 5.04999 45.5626
748 2 4.247 0.281926 39.2502
749 2 5.27394 4.86989 41.5361
750 2 11.3278 14.1594 43.3116
751 2 13.801 22.4437 41.7575
752 3 13.3287 1.03546 48.3605
753 3 5.93051 18.4701 47.3656
754 3 16.1047 17.907 47.8465
755 2 16.5402 18.4971 48.7116
756 2 18.7582 10.1005 45.3958
