# LAMMPS data file
756 atoms
3 atom types
0.0 32.39794198551478 xlo xhi
0.0 23.64774 ylo yhi
0.0 77.32469402918946 zlo zhi

Atoms # atomic

1 1 5.07362 3.05499 31.4383
2 1 8.95332 4.82759 30
3 1 10.4733 0.886302 31.4383
4 1 3.55366 6.99628 30
5 2 6.08428 5.36421 30.2063
6 2 7.94266 2.51837 31.232
7 2 0.684626 6.45966 30.2063
8 2 2.543 1.42292 31.232
9 2 8.45027 7.31804 30.6132
10 2 5.57667 0.564542 30.8251
11 2 3.05061 4.50583 30.6132
12 2 0.177018 3.37675 30.8251
13 1 8.30125 3.05499 34.086
14 1 1.38163 4.82759 32.6477
15 1 2.90159 0.886302 34.086
16 1 6.78129 6.99628 32.6477
17 2 9.31191 5.36421 32.854
18 2 0.370971 2.51837 33.8797
19 2 3.91225 6.45966 32.854
20 2 5.77063 1.42292 33.8797
21 2 0.878579 7.31804 33.261
22 2 8.8043 0.564542 33.4728
23 2 6.27824 4.50583 33.261
24 2 3.40464 3.37675 33.4728
25 1 1.04992 3.16648 36.6245
26 1 4.63312 4.74442 35.136
27 1 6.30494 0.744565 36.7242
28 1 9.93288 6.87503 35.297
29 2 1.91812 5.09591 35.4674
30 2 3.75209 2.50204 36.518
31 2 7.08294 6.07718 35.7344
32 2 9.20734 1.26267 36.7127
33 2 3.77655 7.63701 35.9887
34 2 1.20107 0.704316 36.3783
35 2 9.4425 4.50958 35.9637
36 2 6.68552 3.22668 36.2004
37 1 3.98027 2.79423 39.8387
38 1 7.58004 4.76387 38.2236
39 1 9.16349 0.65954 39.2195
40 1 2.22967 6.93957 38.0833
41 2 5.0156 5.50643 38.1847
42 2 4.80119 4.80507 41.3691
43 2 10.1775 6.75532 38.0143
44 2 4.69506 0.466197 38.7071
45 2 6.42464 10.5723 39.7754
46 2 6.6347 2.60327 39.445
47 2 2.21485 4.42621 38.7366
48 2 7.08029 7.048 38.7347
49 1 7.22648 3.07609 42.3296
50 1 0.42989 4.62688 40.8157
51 1 1.91042 0.829455 42.2328
52 1 5.50336 6.99651 40.6246
53 2 12.8408 3.16571 41.6595
54 2 5.57008 3.6876 44.2553
55 2 2.94723 7.16114 44.2355
56 2 5.85455 21.9467 43.6286
57 2 9.64836 10.1612 41.9877
58 2 2.42012 3.67338 41.8417
59 2 2.71268 6.50044 40.7787
60 2 18.4058 1.89907 45.2525
61 1 10.4234 3.18531 45.0313
62 1 3.49151 4.95306 43.5951
63 1 5.15414 1.06174 44.726
64 1 8.67234 7.0057 43.5487
65 2 10.8375 0.495666 44.5277
66 2 0.612091 5.25483 43.779
67 2 5.88271 11.1127 44.592
68 2 30.4064 3.60018 46.7007
69 2 9.13734 6.40001 45.9772
70 2 3.23955 8.62523 47.3106
71 2 12.3353 1.10864 39.3877
72 2 31.8846 2.33704 41.7794
73 1 3.52784 3.02232 47.499
74 1 6.83775 4.92413 46.2342
75 1 8.38745 1.24611 47.2598
76 1 1.20232 6.95565 46.3215
77 2 4.55442 1.33962 42.1641
78 2 8.3104 4.51843 43.8618
79 2 18.9633 9.23956 44.8636
80 2 27.3119 22.0552 43.3888
81 2 4.50793 9.08442 41.8575
82 2 22.6627 4.42802 46.7829
83 2 2.93814 23.3194 44.2765
84 2 30.5188 22.2617 46.1874
85 1 5.07362 10.9376 31.4383
86 1 8.95332 12.7102 30
87 1 10.4733 8.76888 31.4383
88 1 3.55366 14.8789 30
89 2 6.08428 13.2468 30.2063
90 2 7.94266 10.401 31.232
91 2 0.684626 14.3422 30.2063
92 2 2.543 9.3055 31.232
93 2 8.45027 15.2006 30.6132
94 2 5.57667 8.44712 30.8251
95 2 3.05061 12.3884 30.6132
96 2 0.177018 11.2593 30.8251
97 1 8.30125 10.9376 34.086
98 1 1.38163 12.7102 32.6477
99 1 2.90159 8.76888 34.086
100 1 6.78129 14.8789 32.6477
101 2 9.31191 13.2468 32.854
102 2 0.370971 10.401 33.8797
103 2 3.91225 14.3422 32.854
104 2 5.77063 9.3055 33.8797
105 2 0.878579 15.2006 33.261
106 2 8.8043 8.44712 33.4728
107 2 6.27824 12.3884 33.261
108 2 3.40464 11.2593 33.4728
109 1 1.02198 10.7034 37.0059
110 1 4.4282 12.9302 35.3493
111 1 5.99987 8.70922 36.601
112 1 9.71234 15.078 35.441
113 2 1.87835 13.1824 35.65
114 2 3.96152 10.3986 36.4443
115 2 7.0683 14.5581 35.3637
116 2 8.45964 9.40029 36.0539
117 2 4.13211 15.3415 35.9887
118 2 0.95475 8.48691 36.0904
119 2 9.4561 12.3957 36.1878
120 2 6.59779 11.2933 36.4901
121 1 3.94544 10.8323 39.6521
122 1 7.70394 12.8725 38.2671
123 1 9.14229 8.72379 39.4965
124 1 2.32156 15.1012 38.0448
125 2 4.89254 13.852 38.0208
126 2 4.8937 12.3774 41.5556
127 2 13.7406 14.3158 40.5821
128 2 1.5409 9.36095 39.4934
129 2 6.98381 15.3391 38.6324
130 2 4.56035 8.41903 38.7918
131 2 2.1639 12.3347 38.6969
132 2 9.79002 11.2218 39.2332
133 1 7.07716 11.0519 42.4336
134 1 0.538103 12.7845 40.8757
135 1 1.99114 8.54235 42.4033
136 1 5.55761 15.0135 40.9777
137 2 8.29377 13.3505 41.1342
138 2 6.18384 7.26661 46.8744
139 2 2.51559 14.6646 41.1911
140 2 9.12154 22.3405 46.4256
141 2 10.3159 14.9344 41.5041
142 2 1.74341 11.2194 42.5558
143 2 6.1985 14.0604 43.6601
144 2 31.745 10.8581 42.0865
145 1 10.3829 10.8505 45.1301
146 1 3.7313 12.8323 43.7731
147 1 4.98958 8.70245 44.9664
148 1 8.98962 14.8744 43.6394
149 2 30.37 12.3578 44.4661
150 2 7.94959 9.22331 45.2542
151 2 8.38989 12.3882 44.1803
152 2 3.06204 15.063 44.2981
153 2 32.3383 17.3472 47.6175
154 2 32.3004 0.970363 47.2212
155 2 27.8372 14.9904 46.9093
156 2 2.80083 9.92742 45.2896
157 1 2.95877 10.78 47.736
158 1 7.09818 13.0239 46.4705
159 1 7.68616 9.10184 47.8092
160 1 0.961336 14.9231 46.2106
161 2 6.62492 15.2498 47.5017
162 2 28.0112 7.27451 46.5624
163 2 25.0517 8.04352 47.163
164 2 2.83256 21.9444 41.0888
165 2 2.73367 2.85181 45.1234
166 2 5.43686 10.4646 47.7307
167 2 12.907 11.0475 41.7412
168 1 5.07362 18.8201 31.4383
169 1 8.95332 20.5928 30
170 1 10.4733 16.6515 31.4383
171 1 3.55366 22.7614 30
172 2 6.08428 21.1294 30.2063
173 2 7.94266 18.2835 31.232
174 2 0.684626 22.2248 30.2063
175 2 2.543 17.1881 31.232
176 2 8.45027 23.0832 30.6132
177 2 5.57667 16.3297 30.8251
178 2 3.05061 20.271 30.6132
179 2 0.177018 19.1419 30.8251
180 1 8.30125 18.8201 34.086
181 1 1.38163 20.5928 32.6477
182 1 2.90159 16.6515 34.086
183 1 6.78129 22.7614 32.6477
184 2 9.31191 21.1294 32.854
185 2 0.370971 18.2835 33.8797
186 2 3.91225 22.2248 32.854
187 2 5.77063 17.1881 33.8797
188 2 0.878579 23.0832 33.261
189 2 8.8043 16.3297 33.4728
190 2 6.27824 20.271 33.261
191 2 3.40464 19.1419 33.4728
192 1 0.797915 18.9404 36.7245
193 1 4.65189 20.6537 35.3408
194 1 5.99182 16.8267 36.834
195 1 10.0593 22.8515 35.2378
196 2 1.76015 21.2487 35.5689
197 2 3.3508 18.0748 36.502
198 2 7.14304 21.8356 35.5729
199 2 8.59401 17.361 36.6678
200 2 4.39806 23.0449 35.5559
201 2 1.10242 16.3729 36.1335
202 2 9.14452 20.2068 36.0382
203 2 6.62269 19.321 36.4338
204 1 3.95761 18.963 39.6027
205 1 7.90442 20.6366 38.0834
206 1 9.15465 16.5731 39.7764
207 1 2.43183 22.8892 38.0876
208 2 4.77575 21.0217 38.1428
209 2 6.66719 18.3885 39.2939
210 2 10.5425 21.9577 38.2087
211 2 1.35906 17.5811 39.3528
212 2 6.98301 22.8497 39.1244
213 2 4.24934 16.3736 39.056
214 2 2.29972 20.2292 38.6181
215 2 9.80427 19.1256 38.6465
216 1 6.88661 18.7967 42.4066
217 1 0.441395 20.3161 40.8154
218 1 1.85883 16.7405 42.5147
219 1 5.47815 22.5936 40.5961
220 2 19.2645 18.8811 47.2566
221 2 16.4347 18.9871 44.2169
222 2 3.79401 20.8522 46.8101
223 2 0.939855 21.0863 43.6651
224 2 7.55329 0.568114 41.8789
225 2 8.47661 11.3063 47.4391
226 2 6.03193 3.21238 47.9539
227 2 32.3266 15.6827 41.4323
228 1 10.6676 19.0525 45.25
229 1 3.57946 20.5633 43.9349
230 1 5.00327 16.1365 45.3539
231 1 8.71239 22.9316 43.7073
232 2 30.3676 11.054 46.711
233 2 24.7477 18.2121 44.6651
234 2 7.64622 20.6919 40.9249
235 2 10.8121 8.50846 44.159
236 2 4.89407 20.1661 41.57
237 2 21.7596 16.1078 44.2841
238 2 8.1998 16.9125 45.1221
239 2 14.2913 16.4017 46.8815
240 1 2.8333 18.7366 47.6377
241 1 6.82281 20.5991 46.3899
242 1 8.36927 16.9304 47.5603
243 1 1.25631 22.5524 46.1171
244 2 10.7842 17.4749 47.374
245 2 0.0819934 0.547859 44.1894
246 2 5.2463 19.0942 44.813
247 2 20.1065 6.14138 46.0541
248 2 3.16677 0.861963 46.6617
249 2 27.7277 14.2672 43.3596
250 2 24.9022 14.891 43.8917
251 2 29.991 20.2536 44.2621
252 1 15.8729 3.05499 31.4383
253 1 19.7526 4.82759 30
254 1 21.2726 0.886302 31.4383
255 1 14.353 6.99628 30
256 2 16.8836 5.36421 30.2063
257 2 18.742 2.51837 31.232
258 2 11.4839 6.45966 30.2063
259 2 13.3423 1.42292 31.232
260 2 19.2496 7.31804 30.6132
261 2 16.376 0.564542 30.8251
262 2 13.8499 4.50583 30.6132
263 2 10.9763 3.37675 30.8251
264 1 19.1006 3.05499 34.086
265 1 12.1809 4.82759 32.6477
266 1 13.7009 0.886302 34.086
267 1 17.5806 6.99628 32.6477
268 2 20.1112 5.36421 32.854
269 2 11.1703 2.51837 33.8797
270 2 14.7116 6.45966 32.854
271 2 16.5699 1.42292 33.8797
272 2 11.6779 7.31804 33.261
273 2 19.6036 0.564542 33.4728
274 2 17.0775 4.50583 33.261
275 2 14.204 3.37675 33.4728
276 1 11.4246 3.00811 37.0083
277 1 15.2666 4.66072 35.3835
278 1 16.8924 0.856474 36.8784
279 1 20.738 7.00088 35.1808
280 2 12.6433 5.40803 35.4565
281 2 13.9721 2.72684 36.654
282 2 18.1002 6.6987 35.1007
283 2 19.9137 1.68277 36.4006
284 2 14.566 7.71874 36.2674
285 2 11.9075 0.578585 36.2164
286 2 20.1619 4.64083 36.0214
287 2 17.4589 3.32202 36.3384
288 1 14.4524 3.01411 39.6539
289 1 18.6002 4.82373 38.1498
290 1 19.9746 1.01898 39.6134
291 1 13.0057 7.0979 38.072
292 2 15.3507 5.12941 37.9319
293 2 17.4771 2.29886 39.5278
294 2 20.5388 6.59431 38.5219
295 2 2.27193 18.594 45.2029
296 2 17.7379 7.13067 38.6531
297 2 9.7151 3.16726 39.1664
298 2 12.596 4.69745 38.5428
299 2 23.0445 1.49867 39.0304
300 1 17.5175 3.1039 42.3581
301 1 10.9618 4.74071 40.8193
302 1 12.4974 0.604413 42.274
303 1 16.3202 6.78969 40.9485
304 2 15.5967 4.46298 41.3951
305 2 27.5489 3.35264 47.7873
306 2 10.6471 1.9041 47.3357
307 2 13.324 21.5464 41.5024
308 2 23.8426 2.86822 44.5775
309 2 18.3326 0.608496 41.6529
310 2 13.507 7.39614 43.8613
311 2 25.4079 5.46344 46.4142
312 1 21.2036 3.4713 45.3421
313 1 13.8849 4.78607 43.413
314 1 15.6457 0.621352 45.1978
315 1 19.4414 6.81875 43.5603
316 2 12.9529 2.74454 44.5983
317 2 14.828 5.44472 46.3869
318 2 9.98474 7.22798 41.3555
319 2 13.5963 0.908904 46.9728
320 2 21.8302 9.11605 46.6314
321 2 11.0232 5.70761 43.4607
322 2 18.2718 8.25504 41.9179
323 2 18.9992 20.5953 44.0967
324 1 13.5017 3.33596 47.3973
325 1 17.4337 4.59149 46.0589
326 1 19.2869 0.947643 47.8022
327 1 11.9062 7.4416 46.1643
328 2 15.1214 1.80712 41.8657
329 2 13.541 22.9749 44.3085
330 2 21.5761 8.23413 44.3618
331 2 7.93008 1.7286 45.0313
332 2 11.4175 16.0925 44.2066
333 2 30.7011 14.3965 45.8697
334 2 15.2634 9.35495 42.5946
335 2 7.62191 4.94998 40.7324
336 1 15.8729 10.9376 31.4383
337 1 19.7526 12.7102 30
338 1 21.2726 8.76888 31.4383
339 1 14.353 14.8789 30
340 2 16.8836 13.2468 30.2063
341 2 18.742 10.401 31.232
342 2 11.4839 14.3422 30.2063
343 2 13.3423 9.3055 31.232
344 2 19.2496 15.2006 30.6132
345 2 16.376 8.44712 30.8251
346 2 13.8499 12.3884 30.6132
347 2 10.9763 11.2593 30.8251
348 1 19.1006 10.9376 34.086
349 1 12.1809 12.7102 32.6477
350 1 13.7009 8.76888 34.086
351 1 17.5806 14.8789 32.6477
352 2 20.1112 13.2468 32.854
353 2 11.1703 10.401 33.8797
354 2 14.7116 14.3422 32.854
355 2 16.5699 9.3055 33.8797
356 2 11.6779 15.2006 33.261
357 2 19.6036 8.44712 33.4728
358 2 17.0775 12.3884 33.261
359 2 14.204 11.2593 33.4728
360 1 11.618 10.8329 36.9942
361 1 15.5334 12.5596 35.3638
362 1 17.0032 8.70238 36.7926
363 1 20.5436 14.9889 35.4727
364 2 12.7408 12.7582 35.7458
365 2 14.8283 8.16219 39.141
366 2 17.944 14.4245 35.4916
367 2 19.8547 9.51443 36.5372
368 2 14.7829 14.9199 35.7839
369 2 12.236 8.22335 35.9351
370 2 20.021 12.519 35.9689
371 2 14.4691 10.5904 36.8234
372 1 14.6796 10.8125 39.4434
373 1 18.5676 12.4478 38.0963
374 1 19.9118 8.74494 39.5169
375 1 13.2207 14.7634 37.849
376 2 15.7608 12.9452 38.3561
377 2 15.6364 12.0659 41.4291
378 2 21.4641 14.3976 38.3462
379 2 11.6849 9.46372 39.1679
380 2 18.6537 12.944 41.1072
381 2 13.1818 5.96985 40.7327
382 2 9.91705 14.6399 38.0541
383 2 20.2041 14.7637 45.8773
384 1 17.8387 10.4986 42.3008
385 1 11.1728 12.5072 40.9173
386 1 12.247 8.47298 42.0288
387 1 16.4901 14.6408 40.8228
388 2 16.4983 14.1465 43.3765
389 2 17.2271 11.2045 36.2653
390 2 12.7546 12.3323 38.8083
391 2 19.7447 10.8332 46.7404
392 2 20.6658 11.235 39.0499
393 2 18.9825 4.26078 44.1212
394 2 16.6249 6.14563 43.8033
395 2 13.2014 9.78502 45.553
396 1 21.194 10.8572 44.844
397 1 14.2755 12.3454 43.5952
398 1 15.7433 8.70681 45.3676
399 1 19.5914 14.9403 43.2779
400 2 15.1162 21.6097 45.9421
401 2 13.9571 13.1409 46.0007
402 2 21.0929 7.19398 41.3106
403 2 16.2976 18.7988 47.98
404 2 21.2142 1.00385 44.6924
405 2 9.80375 22.9464 41.2689
406 2 9.58645 18.305 42.0855
407 2 11.2587 13.3958 43.8422
408 1 13.3894 11.3212 47.5725
409 1 17.9671 12.619 46.1456
410 1 19.4967 8.32441 47.1934
411 1 11.9673 14.7961 46.1078
412 2 10.9047 9.38314 47.2513
413 2 21.7453 17.0977 46.8627
414 2 17.4933 23.0253 46.8375
415 2 11.4234 12.564 47.2391
416 2 20.6863 10.2826 41.8666
417 2 7.46745 8.50537 41.7443
418 2 6.85205 23.2401 46.413
419 1 15.8729 18.8201 31.4383
420 1 19.7526 20.5928 30
421 1 21.2726 16.6515 31.4383
422 1 14.353 22.7614 30
423 2 16.8836 21.1294 30.2063
424 2 18.742 18.2835 31.232
425 2 11.4839 22.2248 30.2063
426 2 13.3423 17.1881 31.232
427 2 19.2496 23.0832 30.6132
428 2 16.376 16.3297 30.8251
429 2 13.8499 20.271 30.6132
430 2 10.9763 19.1419 30.8251
431 1 19.1006 18.8201 34.086
432 1 12.1809 20.5928 32.6477
433 1 13.7009 16.6515 34.086
434 1 17.5806 22.7614 32.6477
435 2 20.1112 21.1294 32.854
436 2 11.1703 18.2835 33.8797
437 2 14.7116 22.2248 32.854
438 2 16.5699 17.1881 33.8797
439 2 11.6779 23.0832 33.261
440 2 19.6036 16.3297 33.4728
441 2 17.0775 20.271 33.261
442 2 14.204 19.1419 33.4728
443 1 11.5452 18.7714 36.8074
444 1 15.4227 20.3787 35.4795
445 1 17.089 16.6623 36.6376
446 1 20.8919 22.6411 35.1006
447 2 12.796 20.9928 35.2439
448 2 14.4301 18.1294 36.8765
449 2 17.7926 22.254 35.5781
450 2 19.7147 17.6947 36.6172
451 2 14.9305 23.0128 36.2097
452 2 11.8997 16.4791 36.0045
453 2 20.2627 20.3761 36.114
454 2 17.5405 19.1101 36.2188
455 1 14.8221 18.6272 39.4301
456 1 18.7391 20.6104 37.8361
457 1 19.9758 16.6641 39.5195
458 1 13.0251 22.7435 37.9875
459 2 15.6088 21.1351 38.5504
460 2 18.3989 15.2065 38.2077
461 2 21.2165 22.1941 38.5242
462 2 11.9092 17.2268 39.4356
463 2 18.1871 23.1603 38.8235
464 2 17.5951 18.484 39.4445
465 2 12.7396 20.2593 38.5464
466 2 20.6973 17.9083 42.2996
467 1 18.0445 19.2922 42.1759
468 1 10.8722 20.3349 40.9292
469 1 12.5745 16.3478 42.0367
470 1 16.3871 22.9249 40.6102
471 2 12.3015 20.2835 47.0462
472 2 16.5782 11.1592 44.4393
473 2 15.0406 0.560925 38.9633
474 2 18.3046 16.5236 41.5943
475 2 21.5606 23.2122 41.249
476 2 10.0112 2.33377 42.2338
477 2 15.7214 20.1506 41.4732
478 2 12.448 18.8991 42.0496
479 1 21.1463 18.7753 45.2471
480 1 14.1544 20.5194 43.7462
481 1 15.6846 16.3549 45.1141
482 1 19.8284 22.8641 43.711
483 2 1.2054 20.1014 46.8996
484 2 13.5173 18.0344 45.2604
485 2 20.5694 19.1981 39.0612
486 2 17.5359 10.2156 39.1555
487 2 13.6541 14.8639 44.0919
488 2 8.3134 20.1986 44.3903
489 2 17.3456 14.948 46.9663
490 2 15.5454 16.0274 38.729
491 1 13.4702 18.4204 48.0485
492 1 17.4671 20.5097 45.9862
493 1 18.7817 16.8609 47.882
494 1 12.019 22.5885 46.3198
495 2 11.47 20.9236 43.7445
496 2 4.59617 17.0705 42.5875
497 2 3.01598 16.122 47.223
498 2 2.22066 19.0071 41.827
499 2 15.5852 3.06789 44.6367
500 2 16.1139 2.74358 47.264
501 2 6.09189 18.3203 47.9045
502 2 18.2607 17.5753 45.6579
503 1 26.6722 3.05499 31.4383
504 1 30.5519 4.82759 30
505 1 32.0719 0.886302 31.4383
506 1 25.1523 6.99628 30
507 2 27.6829 5.36421 30.2063
508 2 29.5413 2.51837 31.232
509 2 22.2833 6.45966 30.2063
510 2 24.1416 1.42292 31.232
511 2 30.0489 7.31804 30.6132
512 2 27.1753 0.564542 30.8251
513 2 24.6492 4.50583 30.6132
514 2 21.7756 3.37675 30.8251
515 1 29.8999 3.05499 34.086
516 1 22.9803 4.82759 32.6477
517 1 24.5002 0.886302 34.086
518 1 28.3799 6.99628 32.6477
519 2 30.9105 5.36421 32.854
520 2 21.9696 2.51837 33.8797
521 2 25.5109 6.45966 32.854
522 2 27.3693 1.42292 33.8797
523 2 22.4772 7.31804 33.261
524 2 30.4029 0.564542 33.4728
525 2 27.8769 4.50583 33.261
526 2 25.0033 3.37675 33.4728
527 1 22.0649 3.12756 36.7071
528 1 25.989 4.82748 35.4085
529 1 27.5339 0.892043 36.9325
530 1 31.4443 6.94111 35.4582
531 2 23.2728 5.41582 35.8236
532 2 25.006 2.42806 36.5259
533 2 29.0892 6.06699 35.777
534 2 30.2038 1.87997 36.7566
535 2 25.9597 7.54975 35.7221
536 2 22.8026 0.476861 36.1699
537 2 31.3029 4.39857 35.7237
538 2 28.0848 3.28456 36.2573
539 1 25.4559 3.26212 39.3979
540 1 29.5138 4.62404 37.9534
541 1 30.9767 0.855349 39.3369
542 1 23.9824 7.08122 38.0423
543 2 25.9701 5.6704 38.4515
544 2 28.6447 2.26291 39.2382
545 2 32.0124 6.2669 38.046
546 2 25.9715 0.662755 39.1547
547 2 29.145 7.19066 38.5456
548 2 26.1803 1.62143 42.1199
549 2 23.2603 4.72487 38.6819
550 2 31.5655 3.34557 38.8077
551 1 28.8648 3.02746 41.976
552 1 21.6945 4.65101 40.7054
553 1 23.2871 1.08402 42.6262
554 1 27.0431 7.30272 40.6362
555 2 29.8793 5.13573 40.9564
556 2 30.0823 4.27593 43.7281
557 2 24.3513 6.583 41.0243
558 2 31.7778 18.2791 42.409
559 2 29.6294 9.30161 44.9182
560 2 24.9285 0.333629 46.7627
561 2 23.786 11.2187 41.5227
562 2 24.0282 3.34422 41.2508
563 1 32.201 3.20427 45.1617
564 1 25.0867 4.71633 43.225
565 1 26.6071 0.745123 44.8137
566 1 30.5927 6.89619 43.1041
567 2 5.45758 6.38496 44.1609
568 2 24.6605 16.2223 46.8606
569 2 27.0564 4.87598 40.9049
570 2 21.0749 2.6929 41.8753
571 2 16.3005 10.368 47.33
572 2 24.2644 9.9053 44.8958
573 2 30.6783 6.74541 46.385
574 2 12.0762 4.62424 46.1742
575 1 24.562 2.96441 47.3078
576 1 28.5566 4.93897 45.9392
577 1 29.7357 1.24369 47.3468
578 1 23.0241 7.1269 46.0356
579 2 22.5856 5.37511 43.7677
580 2 19.4518 3.18051 47.3267
581 2 27.7739 6.51814 43.2061
582 2 17.0514 22.0293 43.8376
583 2 22.8264 9.24833 38.6575
584 2 9.60664 14.4287 46.0867
585 2 18.4793 5.22502 41.1064
586 2 27.5822 23.0006 46.8177
587 1 26.6722 10.9376 31.4383
588 1 30.5519 12.7102 30
589 1 32.0719 8.76888 31.4383
590 1 25.1523 14.8789 30
591 2 27.6829 13.2468 30.2063
592 2 29.5413 10.401 31.232
593 2 22.2833 14.3422 30.2063
594 2 24.1416 9.3055 31.232
595 2 30.0489 15.2006 30.6132
596 2 27.1753 8.44712 30.8251
597 2 24.6492 12.3884 30.6132
598 2 21.7756 11.2593 30.8251
599 1 29.8999 10.9376 34.086
600 1 22.9803 12.7102 32.6477
601 1 24.5002 8.76888 34.086
602 1 28.3799 14.8789 32.6477
603 2 30.9105 13.2468 32.854
604 2 21.9696 10.401 33.8797
605 2 25.5109 14.3422 32.854
606 2 27.3693 9.3055 33.8797
607 2 22.4772 15.2006 33.261
608 2 30.4029 8.44712 33.4728
609 2 27.8769 12.3884 33.261
610 2 25.0033 11.2593 33.4728
611 1 22.2053 11.0399 36.8598
612 1 26.3124 12.7579 35.1994
613 1 27.8898 8.90822 36.9233
614 1 31.6451 14.9131 35.2824
615 2 22.8932 13.3042 35.4698
616 2 25.2598 10.5943 36.6041
617 2 29.0507 14.2281 35.2952
618 2 30.658 9.39066 37.0318
619 2 25.472 15.2039 35.9393
620 2 22.9529 8.58758 36.0443
621 2 31.385 12.2124 36.2891
622 2 28.1834 11.4375 36.1726
623 1 25.5234 10.9719 39.3885
624 1 29.6622 12.6643 38.2035
625 1 31.0588 8.82114 39.6535
626 1 23.9965 15.0242 38.0123
627 2 26.6656 13.1258 38.2149
628 2 28.8634 10.1598 38.9303
629 2 32.1836 14.5551 38.3034
630 2 26.146 8.52765 38.6792
631 2 29.0722 15.1049 38.5545
632 2 24.5906 7.14896 43.7275
633 2 23.4626 12.0783 38.6189
634 2 32.031 11.2415 38.9103
635 1 29.1625 10.982 42.6468
636 1 21.9024 12.6954 40.6808
637 1 23.3074 8.58794 42.0665
638 1 27.1235 14.8943 40.6927
639 2 0.413566 13.7962 44.1213
640 2 0.158997 8.98722 47.7551
641 2 21.4123 15.0864 41.1001
642 2 27.3353 12.1462 41.0249
643 2 1.78915 12.3511 46.5741
644 2 21.7781 0.754646 48.2162
645 2 25.7972 16.8457 41.859
646 2 20.6877 3.38345 39.0112
647 1 32.2606 10.9812 44.7496
648 1 25.1927 12.195 43.1979
649 1 26.7758 8.49292 45.053
650 1 30.4358 14.9581 43.4679
651 2 19.3723 12.3608 43.9243
652 2 17.2559 7.30544 46.8788
653 2 29.2857 8.52092 41.5607
654 2 27.3013 10.4513 47.1389
655 2 24.394 14.0436 40.9282
656 2 15.4358 16.8141 41.8274
657 2 30.1389 12.9813 40.9792
658 2 27.4537 19.1937 44.1522
659 1 24.4819 10.6287 47.3043
660 1 28.5357 12.4675 46.1154
661 1 29.7177 8.99046 47.4804
662 1 22.7502 14.5686 45.9516
663 2 25.9663 9.39624 41.9784
664 2 25.1574 12.5408 45.7985
665 2 27.2553 11.148 44.4303
666 2 4.14614 13.6196 45.8471
667 2 32.3215 7.15847 41.3325
668 2 7.54941 16.1023 42.0009
669 2 24.0943 18.7075 41.7965
670 2 32.2992 8.42523 44.2045
671 1 26.6722 18.8201 31.4383
672 1 30.5519 20.5928 30
673 1 32.0719 16.6515 31.4383
674 1 25.1523 22.7614 30
675 2 27.6829 21.1294 30.2063
676 2 29.5413 18.2835 31.232
677 2 22.2833 22.2248 30.2063
678 2 24.1416 17.1881 31.232
679 2 30.0489 23.0832 30.6132
680 2 27.1753 16.3297 30.8251
681 2 24.6492 20.271 30.6132
682 2 21.7756 19.1419 30.8251
683 1 29.8999 18.8201 34.086
684 1 22.9803 20.5928 32.6477
685 1 24.5002 16.6515 34.086
686 1 28.3799 22.7614 32.6477
687 2 30.9105 21.1294 32.854
688 2 21.9696 18.2835 33.8797
689 2 25.5109 22.2248 32.854
690 2 27.3693 17.1881 33.8797
691 2 22.4772 23.0832 33.261
692 2 30.4029 16.3297 33.4728
693 2 27.8769 20.271 33.261
694 2 25.0033 19.1419 33.4728
695 1 22.1237 18.829 36.9963
696 1 26.177 20.3547 35.4544
697 1 27.9162 16.5575 36.6118
698 1 31.5058 22.9351 35.4133
699 2 23.3676 20.9622 35.9132
700 2 25.1059 17.7773 36.4401
701 2 28.8696 22.1883 35.68
702 2 30.7086 17.5114 36.6729
703 2 25.4901 22.6946 35.8879
704 2 22.7189 16.412 36.3211
705 2 31.162 20.4426 35.9879
706 2 28.3094 19.0681 36.0975
707 1 25.5255 18.7233 39.5088
708 1 29.5126 20.4284 37.8634
709 1 31.0029 16.8538 39.6197
710 1 23.8492 22.8403 37.9254
711 2 26.8479 20.6591 38.1757
712 2 28.249 18.0964 39.002
713 2 32.32 22.211 38.0895
714 2 26.1751 16.3064 39.0423
715 2 28.9057 22.9001 38.5931
716 2 22.888 17.2667 39.1887
717 2 23.3685 20.0971 38.8802
718 2 31.3967 19.1878 39.4382
719 1 28.823 18.7381 42.2284
720 1 21.9602 20.6733 40.9825
721 1 23.2708 16.2117 42.1125
722 1 27.2419 22.5432 40.7593
723 2 32.3261 22.7839 41.0112
724 2 0.00139005 16.4905 44.4857
725 2 24.5238 22.3531 41.4289
726 2 22.9166 20.029 46.3937
727 2 1.78457 1.23018 39.929
728 2 28.8197 16.3959 41.7277
729 2 26.5205 19.9574 41.5825
730 2 21.8901 21.2644 43.9967
731 1 31.9628 18.7143 45.0716
732 1 24.9504 20.5512 43.57
733 1 26.5429 16.5219 44.7317
734 1 30.5697 22.4618 43.4634
735 2 19.508 21.121 41.2635
736 2 1.13884 4.69871 47.0976
737 2 29.392 0.282952 41.7481
738 2 22.0593 13.4072 43.2853
739 2 24.2374 23.3871 44.3618
740 2 26.9497 3.18315 44.5977
741 2 26.7696 18.4597 46.9045
742 2 25.3401 20.9424 46.1996
743 1 24.3723 18.4932 47.374
744 1 28.2843 20.6081 46.0926
745 1 29.7487 16.4915 47.4602
746 1 23.0051 22.5765 46.4401
747 2 29.9932 18.7484 46.7008
748 2 29.7872 21.2761 41.3996
749 2 4.08746 5.22274 46.1057
750 2 29.5351 17.0844 44.9328
751 2 8.7895 19.2568 46.7199
752 2 22.4919 12.3117 47.1224
753 2 29.7559 1.28541 44.9114
754 2 20.3775 22.1391 46.4201
755 3 9.12855 0.117816 49.6982
756 3 9.06198 23.251 50.6831
